p cnf 729 12011
1 0
2 0
3 0
4 0
5 0
6 0
7 0
8 0
9 0
10 0
11 0
12 0
13 0
14 0
15 0
16 0
17 0
18 0
19 0
20 0
21 0
22 0
23 0
24 25 26 27 28 29 30 31 32 0
-24 -25 0
-24 -26 0
-24 -27 0
-24 -28 0
-24 -29 0
-24 -30 0
-24 -31 0
-24 -32 0
-25 -26 0
-25 -27 0
-25 -28 0
-25 -29 0
-25 -30 0
-25 -31 0
-25 -32 0
-26 -27 0
-26 -28 0
-26 -29 0
-26 -30 0
-26 -31 0
-26 -32 0
-27 -28 0
-27 -29 0
-27 -30 0
-27 -31 0
-27 -32 0
-28 -29 0
-28 -30 0
-28 -31 0
-28 -32 0
-29 -30 0
-29 -31 0
-29 -32 0
-30 -31 0
-30 -32 0
-31 -32 0
33 34 35 36 37 38 39 1 40 0
-33 -34 0
-33 -35 0
-33 -36 0
-33 -37 0
-33 -38 0
-33 -39 0
-33 -1 0
-33 -40 0
-34 -35 0
-34 -36 0
-34 -37 0
-34 -38 0
-34 -39 0
-34 -1 0
-34 -40 0
-35 -36 0
-35 -37 0
-35 -38 0
-35 -39 0
-35 -1 0
-35 -40 0
-36 -37 0
-36 -38 0
-36 -39 0
-36 -1 0
-36 -40 0
-37 -38 0
-37 -39 0
-37 -1 0
-37 -40 0
-38 -39 0
-38 -1 0
-38 -40 0
-39 -1 0
-39 -40 0
-1 -40 0
41 42 2 43 44 45 46 47 48 0
-41 -42 0
-41 -2 0
-41 -43 0
-41 -44 0
-41 -45 0
-41 -46 0
-41 -47 0
-41 -48 0
-42 -2 0
-42 -43 0
-42 -44 0
-42 -45 0
-42 -46 0
-42 -47 0
-42 -48 0
-2 -43 0
-2 -44 0
-2 -45 0
-2 -46 0
-2 -47 0
-2 -48 0
-43 -44 0
-43 -45 0
-43 -46 0
-43 -47 0
-43 -48 0
-44 -45 0
-44 -46 0
-44 -47 0
-44 -48 0
-45 -46 0
-45 -47 0
-45 -48 0
-46 -47 0
-46 -48 0
-47 -48 0
49 50 51 52 53 54 55 56 57 0
-49 -50 0
-49 -51 0
-49 -52 0
-49 -53 0
-49 -54 0
-49 -55 0
-49 -56 0
-49 -57 0
-50 -51 0
-50 -52 0
-50 -53 0
-50 -54 0
-50 -55 0
-50 -56 0
-50 -57 0
-51 -52 0
-51 -53 0
-51 -54 0
-51 -55 0
-51 -56 0
-51 -57 0
-52 -53 0
-52 -54 0
-52 -55 0
-52 -56 0
-52 -57 0
-53 -54 0
-53 -55 0
-53 -56 0
-53 -57 0
-54 -55 0
-54 -56 0
-54 -57 0
-55 -56 0
-55 -57 0
-56 -57 0
58 59 60 61 62 63 64 65 3 0
-58 -59 0
-58 -60 0
-58 -61 0
-58 -62 0
-58 -63 0
-58 -64 0
-58 -65 0
-58 -3 0
-59 -60 0
-59 -61 0
-59 -62 0
-59 -63 0
-59 -64 0
-59 -65 0
-59 -3 0
-60 -61 0
-60 -62 0
-60 -63 0
-60 -64 0
-60 -65 0
-60 -3 0
-61 -62 0
-61 -63 0
-61 -64 0
-61 -65 0
-61 -3 0
-62 -63 0
-62 -64 0
-62 -65 0
-62 -3 0
-63 -64 0
-63 -65 0
-63 -3 0
-64 -65 0
-64 -3 0
-65 -3 0
66 67 68 69 70 71 72 73 74 0
-66 -67 0
-66 -68 0
-66 -69 0
-66 -70 0
-66 -71 0
-66 -72 0
-66 -73 0
-66 -74 0
-67 -68 0
-67 -69 0
-67 -70 0
-67 -71 0
-67 -72 0
-67 -73 0
-67 -74 0
-68 -69 0
-68 -70 0
-68 -71 0
-68 -72 0
-68 -73 0
-68 -74 0
-69 -70 0
-69 -71 0
-69 -72 0
-69 -73 0
-69 -74 0
-70 -71 0
-70 -72 0
-70 -73 0
-70 -74 0
-71 -72 0
-71 -73 0
-71 -74 0
-72 -73 0
-72 -74 0
-73 -74 0
75 76 77 78 79 80 4 81 82 0
-75 -76 0
-75 -77 0
-75 -78 0
-75 -79 0
-75 -80 0
-75 -4 0
-75 -81 0
-75 -82 0
-76 -77 0
-76 -78 0
-76 -79 0
-76 -80 0
-76 -4 0
-76 -81 0
-76 -82 0
-77 -78 0
-77 -79 0
-77 -80 0
-77 -4 0
-77 -81 0
-77 -82 0
-78 -79 0
-78 -80 0
-78 -4 0
-78 -81 0
-78 -82 0
-79 -80 0
-79 -4 0
-79 -81 0
-79 -82 0
-80 -4 0
-80 -81 0
-80 -82 0
-4 -81 0
-4 -82 0
-81 -82 0
83 84 85 86 5 87 88 89 90 0
-83 -84 0
-83 -85 0
-83 -86 0
-83 -5 0
-83 -87 0
-83 -88 0
-83 -89 0
-83 -90 0
-84 -85 0
-84 -86 0
-84 -5 0
-84 -87 0
-84 -88 0
-84 -89 0
-84 -90 0
-85 -86 0
-85 -5 0
-85 -87 0
-85 -88 0
-85 -89 0
-85 -90 0
-86 -5 0
-86 -87 0
-86 -88 0
-86 -89 0
-86 -90 0
-5 -87 0
-5 -88 0
-5 -89 0
-5 -90 0
-87 -88 0
-87 -89 0
-87 -90 0
-88 -89 0
-88 -90 0
-89 -90 0
91 92 93 94 95 96 97 98 99 0
-91 -92 0
-91 -93 0
-91 -94 0
-91 -95 0
-91 -96 0
-91 -97 0
-91 -98 0
-91 -99 0
-92 -93 0
-92 -94 0
-92 -95 0
-92 -96 0
-92 -97 0
-92 -98 0
-92 -99 0
-93 -94 0
-93 -95 0
-93 -96 0
-93 -97 0
-93 -98 0
-93 -99 0
-94 -95 0
-94 -96 0
-94 -97 0
-94 -98 0
-94 -99 0
-95 -96 0
-95 -97 0
-95 -98 0
-95 -99 0
-96 -97 0
-96 -98 0
-96 -99 0
-97 -98 0
-97 -99 0
-98 -99 0
100 101 102 103 6 104 105 106 107 0
-100 -101 0
-100 -102 0
-100 -103 0
-100 -6 0
-100 -104 0
-100 -105 0
-100 -106 0
-100 -107 0
-101 -102 0
-101 -103 0
-101 -6 0
-101 -104 0
-101 -105 0
-101 -106 0
-101 -107 0
-102 -103 0
-102 -6 0
-102 -104 0
-102 -105 0
-102 -106 0
-102 -107 0
-103 -6 0
-103 -104 0
-103 -105 0
-103 -106 0
-103 -107 0
-6 -104 0
-6 -105 0
-6 -106 0
-6 -107 0
-104 -105 0
-104 -106 0
-104 -107 0
-105 -106 0
-105 -107 0
-106 -107 0
108 109 110 111 112 113 114 115 116 0
-108 -109 0
-108 -110 0
-108 -111 0
-108 -112 0
-108 -113 0
-108 -114 0
-108 -115 0
-108 -116 0
-109 -110 0
-109 -111 0
-109 -112 0
-109 -113 0
-109 -114 0
-109 -115 0
-109 -116 0
-110 -111 0
-110 -112 0
-110 -113 0
-110 -114 0
-110 -115 0
-110 -116 0
-111 -112 0
-111 -113 0
-111 -114 0
-111 -115 0
-111 -116 0
-112 -113 0
-112 -114 0
-112 -115 0
-112 -116 0
-113 -114 0
-113 -115 0
-113 -116 0
-114 -115 0
-114 -116 0
-115 -116 0
117 118 119 120 121 122 123 124 125 0
-117 -118 0
-117 -119 0
-117 -120 0
-117 -121 0
-117 -122 0
-117 -123 0
-117 -124 0
-117 -125 0
-118 -119 0
-118 -120 0
-118 -121 0
-118 -122 0
-118 -123 0
-118 -124 0
-118 -125 0
-119 -120 0
-119 -121 0
-119 -122 0
-119 -123 0
-119 -124 0
-119 -125 0
-120 -121 0
-120 -122 0
-120 -123 0
-120 -124 0
-120 -125 0
-121 -122 0
-121 -123 0
-121 -124 0
-121 -125 0
-122 -123 0
-122 -124 0
-122 -125 0
-123 -124 0
-123 -125 0
-124 -125 0
126 127 128 129 130 131 132 133 134 0
-126 -127 0
-126 -128 0
-126 -129 0
-126 -130 0
-126 -131 0
-126 -132 0
-126 -133 0
-126 -134 0
-127 -128 0
-127 -129 0
-127 -130 0
-127 -131 0
-127 -132 0
-127 -133 0
-127 -134 0
-128 -129 0
-128 -130 0
-128 -131 0
-128 -132 0
-128 -133 0
-128 -134 0
-129 -130 0
-129 -131 0
-129 -132 0
-129 -133 0
-129 -134 0
-130 -131 0
-130 -132 0
-130 -133 0
-130 -134 0
-131 -132 0
-131 -133 0
-131 -134 0
-132 -133 0
-132 -134 0
-133 -134 0
135 136 137 138 139 140 141 142 143 0
-135 -136 0
-135 -137 0
-135 -138 0
-135 -139 0
-135 -140 0
-135 -141 0
-135 -142 0
-135 -143 0
-136 -137 0
-136 -138 0
-136 -139 0
-136 -140 0
-136 -141 0
-136 -142 0
-136 -143 0
-137 -138 0
-137 -139 0
-137 -140 0
-137 -141 0
-137 -142 0
-137 -143 0
-138 -139 0
-138 -140 0
-138 -141 0
-138 -142 0
-138 -143 0
-139 -140 0
-139 -141 0
-139 -142 0
-139 -143 0
-140 -141 0
-140 -142 0
-140 -143 0
-141 -142 0
-141 -143 0
-142 -143 0
144 145 146 147 148 149 150 151 152 0
-144 -145 0
-144 -146 0
-144 -147 0
-144 -148 0
-144 -149 0
-144 -150 0
-144 -151 0
-144 -152 0
-145 -146 0
-145 -147 0
-145 -148 0
-145 -149 0
-145 -150 0
-145 -151 0
-145 -152 0
-146 -147 0
-146 -148 0
-146 -149 0
-146 -150 0
-146 -151 0
-146 -152 0
-147 -148 0
-147 -149 0
-147 -150 0
-147 -151 0
-147 -152 0
-148 -149 0
-148 -150 0
-148 -151 0
-148 -152 0
-149 -150 0
-149 -151 0
-149 -152 0
-150 -151 0
-150 -152 0
-151 -152 0
153 154 155 156 157 158 159 160 161 0
-153 -154 0
-153 -155 0
-153 -156 0
-153 -157 0
-153 -158 0
-153 -159 0
-153 -160 0
-153 -161 0
-154 -155 0
-154 -156 0
-154 -157 0
-154 -158 0
-154 -159 0
-154 -160 0
-154 -161 0
-155 -156 0
-155 -157 0
-155 -158 0
-155 -159 0
-155 -160 0
-155 -161 0
-156 -157 0
-156 -158 0
-156 -159 0
-156 -160 0
-156 -161 0
-157 -158 0
-157 -159 0
-157 -160 0
-157 -161 0
-158 -159 0
-158 -160 0
-158 -161 0
-159 -160 0
-159 -161 0
-160 -161 0
162 163 164 165 166 167 168 169 170 0
-162 -163 0
-162 -164 0
-162 -165 0
-162 -166 0
-162 -167 0
-162 -168 0
-162 -169 0
-162 -170 0
-163 -164 0
-163 -165 0
-163 -166 0
-163 -167 0
-163 -168 0
-163 -169 0
-163 -170 0
-164 -165 0
-164 -166 0
-164 -167 0
-164 -168 0
-164 -169 0
-164 -170 0
-165 -166 0
-165 -167 0
-165 -168 0
-165 -169 0
-165 -170 0
-166 -167 0
-166 -168 0
-166 -169 0
-166 -170 0
-167 -168 0
-167 -169 0
-167 -170 0
-168 -169 0
-168 -170 0
-169 -170 0
171 7 172 173 174 175 176 177 178 0
-171 -7 0
-171 -172 0
-171 -173 0
-171 -174 0
-171 -175 0
-171 -176 0
-171 -177 0
-171 -178 0
-7 -172 0
-7 -173 0
-7 -174 0
-7 -175 0
-7 -176 0
-7 -177 0
-7 -178 0
-172 -173 0
-172 -174 0
-172 -175 0
-172 -176 0
-172 -177 0
-172 -178 0
-173 -174 0
-173 -175 0
-173 -176 0
-173 -177 0
-173 -178 0
-174 -175 0
-174 -176 0
-174 -177 0
-174 -178 0
-175 -176 0
-175 -177 0
-175 -178 0
-176 -177 0
-176 -178 0
-177 -178 0
179 180 181 182 183 184 185 186 187 0
-179 -180 0
-179 -181 0
-179 -182 0
-179 -183 0
-179 -184 0
-179 -185 0
-179 -186 0
-179 -187 0
-180 -181 0
-180 -182 0
-180 -183 0
-180 -184 0
-180 -185 0
-180 -186 0
-180 -187 0
-181 -182 0
-181 -183 0
-181 -184 0
-181 -185 0
-181 -186 0
-181 -187 0
-182 -183 0
-182 -184 0
-182 -185 0
-182 -186 0
-182 -187 0
-183 -184 0
-183 -185 0
-183 -186 0
-183 -187 0
-184 -185 0
-184 -186 0
-184 -187 0
-185 -186 0
-185 -187 0
-186 -187 0
188 189 190 191 192 193 194 195 196 0
-188 -189 0
-188 -190 0
-188 -191 0
-188 -192 0
-188 -193 0
-188 -194 0
-188 -195 0
-188 -196 0
-189 -190 0
-189 -191 0
-189 -192 0
-189 -193 0
-189 -194 0
-189 -195 0
-189 -196 0
-190 -191 0
-190 -192 0
-190 -193 0
-190 -194 0
-190 -195 0
-190 -196 0
-191 -192 0
-191 -193 0
-191 -194 0
-191 -195 0
-191 -196 0
-192 -193 0
-192 -194 0
-192 -195 0
-192 -196 0
-193 -194 0
-193 -195 0
-193 -196 0
-194 -195 0
-194 -196 0
-195 -196 0
197 198 199 200 201 202 203 204 205 0
-197 -198 0
-197 -199 0
-197 -200 0
-197 -201 0
-197 -202 0
-197 -203 0
-197 -204 0
-197 -205 0
-198 -199 0
-198 -200 0
-198 -201 0
-198 -202 0
-198 -203 0
-198 -204 0
-198 -205 0
-199 -200 0
-199 -201 0
-199 -202 0
-199 -203 0
-199 -204 0
-199 -205 0
-200 -201 0
-200 -202 0
-200 -203 0
-200 -204 0
-200 -205 0
-201 -202 0
-201 -203 0
-201 -204 0
-201 -205 0
-202 -203 0
-202 -204 0
-202 -205 0
-203 -204 0
-203 -205 0
-204 -205 0
206 207 208 209 210 211 8 212 213 0
-206 -207 0
-206 -208 0
-206 -209 0
-206 -210 0
-206 -211 0
-206 -8 0
-206 -212 0
-206 -213 0
-207 -208 0
-207 -209 0
-207 -210 0
-207 -211 0
-207 -8 0
-207 -212 0
-207 -213 0
-208 -209 0
-208 -210 0
-208 -211 0
-208 -8 0
-208 -212 0
-208 -213 0
-209 -210 0
-209 -211 0
-209 -8 0
-209 -212 0
-209 -213 0
-210 -211 0
-210 -8 0
-210 -212 0
-210 -213 0
-211 -8 0
-211 -212 0
-211 -213 0
-8 -212 0
-8 -213 0
-212 -213 0
214 215 216 217 218 219 220 221 222 0
-214 -215 0
-214 -216 0
-214 -217 0
-214 -218 0
-214 -219 0
-214 -220 0
-214 -221 0
-214 -222 0
-215 -216 0
-215 -217 0
-215 -218 0
-215 -219 0
-215 -220 0
-215 -221 0
-215 -222 0
-216 -217 0
-216 -218 0
-216 -219 0
-216 -220 0
-216 -221 0
-216 -222 0
-217 -218 0
-217 -219 0
-217 -220 0
-217 -221 0
-217 -222 0
-218 -219 0
-218 -220 0
-218 -221 0
-218 -222 0
-219 -220 0
-219 -221 0
-219 -222 0
-220 -221 0
-220 -222 0
-221 -222 0
223 224 225 226 227 228 229 230 231 0
-223 -224 0
-223 -225 0
-223 -226 0
-223 -227 0
-223 -228 0
-223 -229 0
-223 -230 0
-223 -231 0
-224 -225 0
-224 -226 0
-224 -227 0
-224 -228 0
-224 -229 0
-224 -230 0
-224 -231 0
-225 -226 0
-225 -227 0
-225 -228 0
-225 -229 0
-225 -230 0
-225 -231 0
-226 -227 0
-226 -228 0
-226 -229 0
-226 -230 0
-226 -231 0
-227 -228 0
-227 -229 0
-227 -230 0
-227 -231 0
-228 -229 0
-228 -230 0
-228 -231 0
-229 -230 0
-229 -231 0
-230 -231 0
232 233 234 235 236 237 238 239 240 0
-232 -233 0
-232 -234 0
-232 -235 0
-232 -236 0
-232 -237 0
-232 -238 0
-232 -239 0
-232 -240 0
-233 -234 0
-233 -235 0
-233 -236 0
-233 -237 0
-233 -238 0
-233 -239 0
-233 -240 0
-234 -235 0
-234 -236 0
-234 -237 0
-234 -238 0
-234 -239 0
-234 -240 0
-235 -236 0
-235 -237 0
-235 -238 0
-235 -239 0
-235 -240 0
-236 -237 0
-236 -238 0
-236 -239 0
-236 -240 0
-237 -238 0
-237 -239 0
-237 -240 0
-238 -239 0
-238 -240 0
-239 -240 0
241 242 243 244 245 246 247 248 249 0
-241 -242 0
-241 -243 0
-241 -244 0
-241 -245 0
-241 -246 0
-241 -247 0
-241 -248 0
-241 -249 0
-242 -243 0
-242 -244 0
-242 -245 0
-242 -246 0
-242 -247 0
-242 -248 0
-242 -249 0
-243 -244 0
-243 -245 0
-243 -246 0
-243 -247 0
-243 -248 0
-243 -249 0
-244 -245 0
-244 -246 0
-244 -247 0
-244 -248 0
-244 -249 0
-245 -246 0
-245 -247 0
-245 -248 0
-245 -249 0
-246 -247 0
-246 -248 0
-246 -249 0
-247 -248 0
-247 -249 0
-248 -249 0
250 251 252 253 254 9 255 256 257 0
-250 -251 0
-250 -252 0
-250 -253 0
-250 -254 0
-250 -9 0
-250 -255 0
-250 -256 0
-250 -257 0
-251 -252 0
-251 -253 0
-251 -254 0
-251 -9 0
-251 -255 0
-251 -256 0
-251 -257 0
-252 -253 0
-252 -254 0
-252 -9 0
-252 -255 0
-252 -256 0
-252 -257 0
-253 -254 0
-253 -9 0
-253 -255 0
-253 -256 0
-253 -257 0
-254 -9 0
-254 -255 0
-254 -256 0
-254 -257 0
-9 -255 0
-9 -256 0
-9 -257 0
-255 -256 0
-255 -257 0
-256 -257 0
258 259 10 260 261 262 263 264 265 0
-258 -259 0
-258 -10 0
-258 -260 0
-258 -261 0
-258 -262 0
-258 -263 0
-258 -264 0
-258 -265 0
-259 -10 0
-259 -260 0
-259 -261 0
-259 -262 0
-259 -263 0
-259 -264 0
-259 -265 0
-10 -260 0
-10 -261 0
-10 -262 0
-10 -263 0
-10 -264 0
-10 -265 0
-260 -261 0
-260 -262 0
-260 -263 0
-260 -264 0
-260 -265 0
-261 -262 0
-261 -263 0
-261 -264 0
-261 -265 0
-262 -263 0
-262 -264 0
-262 -265 0
-263 -264 0
-263 -265 0
-264 -265 0
266 267 268 269 270 271 272 273 274 0
-266 -267 0
-266 -268 0
-266 -269 0
-266 -270 0
-266 -271 0
-266 -272 0
-266 -273 0
-266 -274 0
-267 -268 0
-267 -269 0
-267 -270 0
-267 -271 0
-267 -272 0
-267 -273 0
-267 -274 0
-268 -269 0
-268 -270 0
-268 -271 0
-268 -272 0
-268 -273 0
-268 -274 0
-269 -270 0
-269 -271 0
-269 -272 0
-269 -273 0
-269 -274 0
-270 -271 0
-270 -272 0
-270 -273 0
-270 -274 0
-271 -272 0
-271 -273 0
-271 -274 0
-272 -273 0
-272 -274 0
-273 -274 0
275 276 277 278 279 280 281 282 283 0
-275 -276 0
-275 -277 0
-275 -278 0
-275 -279 0
-275 -280 0
-275 -281 0
-275 -282 0
-275 -283 0
-276 -277 0
-276 -278 0
-276 -279 0
-276 -280 0
-276 -281 0
-276 -282 0
-276 -283 0
-277 -278 0
-277 -279 0
-277 -280 0
-277 -281 0
-277 -282 0
-277 -283 0
-278 -279 0
-278 -280 0
-278 -281 0
-278 -282 0
-278 -283 0
-279 -280 0
-279 -281 0
-279 -282 0
-279 -283 0
-280 -281 0
-280 -282 0
-280 -283 0
-281 -282 0
-281 -283 0
-282 -283 0
11 284 285 286 287 288 289 290 291 0
-11 -284 0
-11 -285 0
-11 -286 0
-11 -287 0
-11 -288 0
-11 -289 0
-11 -290 0
-11 -291 0
-284 -285 0
-284 -286 0
-284 -287 0
-284 -288 0
-284 -289 0
-284 -290 0
-284 -291 0
-285 -286 0
-285 -287 0
-285 -288 0
-285 -289 0
-285 -290 0
-285 -291 0
-286 -287 0
-286 -288 0
-286 -289 0
-286 -290 0
-286 -291 0
-287 -288 0
-287 -289 0
-287 -290 0
-287 -291 0
-288 -289 0
-288 -290 0
-288 -291 0
-289 -290 0
-289 -291 0
-290 -291 0
292 293 294 295 296 297 298 299 300 0
-292 -293 0
-292 -294 0
-292 -295 0
-292 -296 0
-292 -297 0
-292 -298 0
-292 -299 0
-292 -300 0
-293 -294 0
-293 -295 0
-293 -296 0
-293 -297 0
-293 -298 0
-293 -299 0
-293 -300 0
-294 -295 0
-294 -296 0
-294 -297 0
-294 -298 0
-294 -299 0
-294 -300 0
-295 -296 0
-295 -297 0
-295 -298 0
-295 -299 0
-295 -300 0
-296 -297 0
-296 -298 0
-296 -299 0
-296 -300 0
-297 -298 0
-297 -299 0
-297 -300 0
-298 -299 0
-298 -300 0
-299 -300 0
301 302 303 304 305 306 307 308 309 0
-301 -302 0
-301 -303 0
-301 -304 0
-301 -305 0
-301 -306 0
-301 -307 0
-301 -308 0
-301 -309 0
-302 -303 0
-302 -304 0
-302 -305 0
-302 -306 0
-302 -307 0
-302 -308 0
-302 -309 0
-303 -304 0
-303 -305 0
-303 -306 0
-303 -307 0
-303 -308 0
-303 -309 0
-304 -305 0
-304 -306 0
-304 -307 0
-304 -308 0
-304 -309 0
-305 -306 0
-305 -307 0
-305 -308 0
-305 -309 0
-306 -307 0
-306 -308 0
-306 -309 0
-307 -308 0
-307 -309 0
-308 -309 0
310 311 312 313 314 315 316 12 317 0
-310 -311 0
-310 -312 0
-310 -313 0
-310 -314 0
-310 -315 0
-310 -316 0
-310 -12 0
-310 -317 0
-311 -312 0
-311 -313 0
-311 -314 0
-311 -315 0
-311 -316 0
-311 -12 0
-311 -317 0
-312 -313 0
-312 -314 0
-312 -315 0
-312 -316 0
-312 -12 0
-312 -317 0
-313 -314 0
-313 -315 0
-313 -316 0
-313 -12 0
-313 -317 0
-314 -315 0
-314 -316 0
-314 -12 0
-314 -317 0
-315 -316 0
-315 -12 0
-315 -317 0
-316 -12 0
-316 -317 0
-12 -317 0
318 319 320 321 322 323 13 324 325 0
-318 -319 0
-318 -320 0
-318 -321 0
-318 -322 0
-318 -323 0
-318 -13 0
-318 -324 0
-318 -325 0
-319 -320 0
-319 -321 0
-319 -322 0
-319 -323 0
-319 -13 0
-319 -324 0
-319 -325 0
-320 -321 0
-320 -322 0
-320 -323 0
-320 -13 0
-320 -324 0
-320 -325 0
-321 -322 0
-321 -323 0
-321 -13 0
-321 -324 0
-321 -325 0
-322 -323 0
-322 -13 0
-322 -324 0
-322 -325 0
-323 -13 0
-323 -324 0
-323 -325 0
-13 -324 0
-13 -325 0
-324 -325 0
326 327 328 329 330 331 332 333 334 0
-326 -327 0
-326 -328 0
-326 -329 0
-326 -330 0
-326 -331 0
-326 -332 0
-326 -333 0
-326 -334 0
-327 -328 0
-327 -329 0
-327 -330 0
-327 -331 0
-327 -332 0
-327 -333 0
-327 -334 0
-328 -329 0
-328 -330 0
-328 -331 0
-328 -332 0
-328 -333 0
-328 -334 0
-329 -330 0
-329 -331 0
-329 -332 0
-329 -333 0
-329 -334 0
-330 -331 0
-330 -332 0
-330 -333 0
-330 -334 0
-331 -332 0
-331 -333 0
-331 -334 0
-332 -333 0
-332 -334 0
-333 -334 0
335 336 337 338 339 340 341 342 343 0
-335 -336 0
-335 -337 0
-335 -338 0
-335 -339 0
-335 -340 0
-335 -341 0
-335 -342 0
-335 -343 0
-336 -337 0
-336 -338 0
-336 -339 0
-336 -340 0
-336 -341 0
-336 -342 0
-336 -343 0
-337 -338 0
-337 -339 0
-337 -340 0
-337 -341 0
-337 -342 0
-337 -343 0
-338 -339 0
-338 -340 0
-338 -341 0
-338 -342 0
-338 -343 0
-339 -340 0
-339 -341 0
-339 -342 0
-339 -343 0
-340 -341 0
-340 -342 0
-340 -343 0
-341 -342 0
-341 -343 0
-342 -343 0
344 345 346 347 348 349 350 351 352 0
-344 -345 0
-344 -346 0
-344 -347 0
-344 -348 0
-344 -349 0
-344 -350 0
-344 -351 0
-344 -352 0
-345 -346 0
-345 -347 0
-345 -348 0
-345 -349 0
-345 -350 0
-345 -351 0
-345 -352 0
-346 -347 0
-346 -348 0
-346 -349 0
-346 -350 0
-346 -351 0
-346 -352 0
-347 -348 0
-347 -349 0
-347 -350 0
-347 -351 0
-347 -352 0
-348 -349 0
-348 -350 0
-348 -351 0
-348 -352 0
-349 -350 0
-349 -351 0
-349 -352 0
-350 -351 0
-350 -352 0
-351 -352 0
353 354 355 356 357 358 359 360 361 0
-353 -354 0
-353 -355 0
-353 -356 0
-353 -357 0
-353 -358 0
-353 -359 0
-353 -360 0
-353 -361 0
-354 -355 0
-354 -356 0
-354 -357 0
-354 -358 0
-354 -359 0
-354 -360 0
-354 -361 0
-355 -356 0
-355 -357 0
-355 -358 0
-355 -359 0
-355 -360 0
-355 -361 0
-356 -357 0
-356 -358 0
-356 -359 0
-356 -360 0
-356 -361 0
-357 -358 0
-357 -359 0
-357 -360 0
-357 -361 0
-358 -359 0
-358 -360 0
-358 -361 0
-359 -360 0
-359 -361 0
-360 -361 0
362 363 364 365 366 367 368 369 370 0
-362 -363 0
-362 -364 0
-362 -365 0
-362 -366 0
-362 -367 0
-362 -368 0
-362 -369 0
-362 -370 0
-363 -364 0
-363 -365 0
-363 -366 0
-363 -367 0
-363 -368 0
-363 -369 0
-363 -370 0
-364 -365 0
-364 -366 0
-364 -367 0
-364 -368 0
-364 -369 0
-364 -370 0
-365 -366 0
-365 -367 0
-365 -368 0
-365 -369 0
-365 -370 0
-366 -367 0
-366 -368 0
-366 -369 0
-366 -370 0
-367 -368 0
-367 -369 0
-367 -370 0
-368 -369 0
-368 -370 0
-369 -370 0
371 372 373 374 375 376 377 378 379 0
-371 -372 0
-371 -373 0
-371 -374 0
-371 -375 0
-371 -376 0
-371 -377 0
-371 -378 0
-371 -379 0
-372 -373 0
-372 -374 0
-372 -375 0
-372 -376 0
-372 -377 0
-372 -378 0
-372 -379 0
-373 -374 0
-373 -375 0
-373 -376 0
-373 -377 0
-373 -378 0
-373 -379 0
-374 -375 0
-374 -376 0
-374 -377 0
-374 -378 0
-374 -379 0
-375 -376 0
-375 -377 0
-375 -378 0
-375 -379 0
-376 -377 0
-376 -378 0
-376 -379 0
-377 -378 0
-377 -379 0
-378 -379 0
380 381 382 383 384 385 386 387 388 0
-380 -381 0
-380 -382 0
-380 -383 0
-380 -384 0
-380 -385 0
-380 -386 0
-380 -387 0
-380 -388 0
-381 -382 0
-381 -383 0
-381 -384 0
-381 -385 0
-381 -386 0
-381 -387 0
-381 -388 0
-382 -383 0
-382 -384 0
-382 -385 0
-382 -386 0
-382 -387 0
-382 -388 0
-383 -384 0
-383 -385 0
-383 -386 0
-383 -387 0
-383 -388 0
-384 -385 0
-384 -386 0
-384 -387 0
-384 -388 0
-385 -386 0
-385 -387 0
-385 -388 0
-386 -387 0
-386 -388 0
-387 -388 0
389 390 391 392 393 14 394 395 396 0
-389 -390 0
-389 -391 0
-389 -392 0
-389 -393 0
-389 -14 0
-389 -394 0
-389 -395 0
-389 -396 0
-390 -391 0
-390 -392 0
-390 -393 0
-390 -14 0
-390 -394 0
-390 -395 0
-390 -396 0
-391 -392 0
-391 -393 0
-391 -14 0
-391 -394 0
-391 -395 0
-391 -396 0
-392 -393 0
-392 -14 0
-392 -394 0
-392 -395 0
-392 -396 0
-393 -14 0
-393 -394 0
-393 -395 0
-393 -396 0
-14 -394 0
-14 -395 0
-14 -396 0
-394 -395 0
-394 -396 0
-395 -396 0
397 398 399 400 401 402 403 404 405 0
-397 -398 0
-397 -399 0
-397 -400 0
-397 -401 0
-397 -402 0
-397 -403 0
-397 -404 0
-397 -405 0
-398 -399 0
-398 -400 0
-398 -401 0
-398 -402 0
-398 -403 0
-398 -404 0
-398 -405 0
-399 -400 0
-399 -401 0
-399 -402 0
-399 -403 0
-399 -404 0
-399 -405 0
-400 -401 0
-400 -402 0
-400 -403 0
-400 -404 0
-400 -405 0
-401 -402 0
-401 -403 0
-401 -404 0
-401 -405 0
-402 -403 0
-402 -404 0
-402 -405 0
-403 -404 0
-403 -405 0
-404 -405 0
406 407 408 409 410 411 412 413 414 0
-406 -407 0
-406 -408 0
-406 -409 0
-406 -410 0
-406 -411 0
-406 -412 0
-406 -413 0
-406 -414 0
-407 -408 0
-407 -409 0
-407 -410 0
-407 -411 0
-407 -412 0
-407 -413 0
-407 -414 0
-408 -409 0
-408 -410 0
-408 -411 0
-408 -412 0
-408 -413 0
-408 -414 0
-409 -410 0
-409 -411 0
-409 -412 0
-409 -413 0
-409 -414 0
-410 -411 0
-410 -412 0
-410 -413 0
-410 -414 0
-411 -412 0
-411 -413 0
-411 -414 0
-412 -413 0
-412 -414 0
-413 -414 0
415 416 417 418 419 420 421 422 423 0
-415 -416 0
-415 -417 0
-415 -418 0
-415 -419 0
-415 -420 0
-415 -421 0
-415 -422 0
-415 -423 0
-416 -417 0
-416 -418 0
-416 -419 0
-416 -420 0
-416 -421 0
-416 -422 0
-416 -423 0
-417 -418 0
-417 -419 0
-417 -420 0
-417 -421 0
-417 -422 0
-417 -423 0
-418 -419 0
-418 -420 0
-418 -421 0
-418 -422 0
-418 -423 0
-419 -420 0
-419 -421 0
-419 -422 0
-419 -423 0
-420 -421 0
-420 -422 0
-420 -423 0
-421 -422 0
-421 -423 0
-422 -423 0
424 425 426 427 428 429 430 431 432 0
-424 -425 0
-424 -426 0
-424 -427 0
-424 -428 0
-424 -429 0
-424 -430 0
-424 -431 0
-424 -432 0
-425 -426 0
-425 -427 0
-425 -428 0
-425 -429 0
-425 -430 0
-425 -431 0
-425 -432 0
-426 -427 0
-426 -428 0
-426 -429 0
-426 -430 0
-426 -431 0
-426 -432 0
-427 -428 0
-427 -429 0
-427 -430 0
-427 -431 0
-427 -432 0
-428 -429 0
-428 -430 0
-428 -431 0
-428 -432 0
-429 -430 0
-429 -431 0
-429 -432 0
-430 -431 0
-430 -432 0
-431 -432 0
15 433 434 435 436 437 438 439 440 0
-15 -433 0
-15 -434 0
-15 -435 0
-15 -436 0
-15 -437 0
-15 -438 0
-15 -439 0
-15 -440 0
-433 -434 0
-433 -435 0
-433 -436 0
-433 -437 0
-433 -438 0
-433 -439 0
-433 -440 0
-434 -435 0
-434 -436 0
-434 -437 0
-434 -438 0
-434 -439 0
-434 -440 0
-435 -436 0
-435 -437 0
-435 -438 0
-435 -439 0
-435 -440 0
-436 -437 0
-436 -438 0
-436 -439 0
-436 -440 0
-437 -438 0
-437 -439 0
-437 -440 0
-438 -439 0
-438 -440 0
-439 -440 0
441 442 443 444 445 446 447 448 449 0
-441 -442 0
-441 -443 0
-441 -444 0
-441 -445 0
-441 -446 0
-441 -447 0
-441 -448 0
-441 -449 0
-442 -443 0
-442 -444 0
-442 -445 0
-442 -446 0
-442 -447 0
-442 -448 0
-442 -449 0
-443 -444 0
-443 -445 0
-443 -446 0
-443 -447 0
-443 -448 0
-443 -449 0
-444 -445 0
-444 -446 0
-444 -447 0
-444 -448 0
-444 -449 0
-445 -446 0
-445 -447 0
-445 -448 0
-445 -449 0
-446 -447 0
-446 -448 0
-446 -449 0
-447 -448 0
-447 -449 0
-448 -449 0
450 16 451 452 453 454 455 456 457 0
-450 -16 0
-450 -451 0
-450 -452 0
-450 -453 0
-450 -454 0
-450 -455 0
-450 -456 0
-450 -457 0
-16 -451 0
-16 -452 0
-16 -453 0
-16 -454 0
-16 -455 0
-16 -456 0
-16 -457 0
-451 -452 0
-451 -453 0
-451 -454 0
-451 -455 0
-451 -456 0
-451 -457 0
-452 -453 0
-452 -454 0
-452 -455 0
-452 -456 0
-452 -457 0
-453 -454 0
-453 -455 0
-453 -456 0
-453 -457 0
-454 -455 0
-454 -456 0
-454 -457 0
-455 -456 0
-455 -457 0
-456 -457 0
458 459 460 461 462 463 464 465 466 0
-458 -459 0
-458 -460 0
-458 -461 0
-458 -462 0
-458 -463 0
-458 -464 0
-458 -465 0
-458 -466 0
-459 -460 0
-459 -461 0
-459 -462 0
-459 -463 0
-459 -464 0
-459 -465 0
-459 -466 0
-460 -461 0
-460 -462 0
-460 -463 0
-460 -464 0
-460 -465 0
-460 -466 0
-461 -462 0
-461 -463 0
-461 -464 0
-461 -465 0
-461 -466 0
-462 -463 0
-462 -464 0
-462 -465 0
-462 -466 0
-463 -464 0
-463 -465 0
-463 -466 0
-464 -465 0
-464 -466 0
-465 -466 0
467 468 469 470 471 472 473 474 475 0
-467 -468 0
-467 -469 0
-467 -470 0
-467 -471 0
-467 -472 0
-467 -473 0
-467 -474 0
-467 -475 0
-468 -469 0
-468 -470 0
-468 -471 0
-468 -472 0
-468 -473 0
-468 -474 0
-468 -475 0
-469 -470 0
-469 -471 0
-469 -472 0
-469 -473 0
-469 -474 0
-469 -475 0
-470 -471 0
-470 -472 0
-470 -473 0
-470 -474 0
-470 -475 0
-471 -472 0
-471 -473 0
-471 -474 0
-471 -475 0
-472 -473 0
-472 -474 0
-472 -475 0
-473 -474 0
-473 -475 0
-474 -475 0
476 477 478 479 480 481 482 483 484 0
-476 -477 0
-476 -478 0
-476 -479 0
-476 -480 0
-476 -481 0
-476 -482 0
-476 -483 0
-476 -484 0
-477 -478 0
-477 -479 0
-477 -480 0
-477 -481 0
-477 -482 0
-477 -483 0
-477 -484 0
-478 -479 0
-478 -480 0
-478 -481 0
-478 -482 0
-478 -483 0
-478 -484 0
-479 -480 0
-479 -481 0
-479 -482 0
-479 -483 0
-479 -484 0
-480 -481 0
-480 -482 0
-480 -483 0
-480 -484 0
-481 -482 0
-481 -483 0
-481 -484 0
-482 -483 0
-482 -484 0
-483 -484 0
485 486 487 488 489 490 491 492 493 0
-485 -486 0
-485 -487 0
-485 -488 0
-485 -489 0
-485 -490 0
-485 -491 0
-485 -492 0
-485 -493 0
-486 -487 0
-486 -488 0
-486 -489 0
-486 -490 0
-486 -491 0
-486 -492 0
-486 -493 0
-487 -488 0
-487 -489 0
-487 -490 0
-487 -491 0
-487 -492 0
-487 -493 0
-488 -489 0
-488 -490 0
-488 -491 0
-488 -492 0
-488 -493 0
-489 -490 0
-489 -491 0
-489 -492 0
-489 -493 0
-490 -491 0
-490 -492 0
-490 -493 0
-491 -492 0
-491 -493 0
-492 -493 0
494 495 496 497 498 499 500 501 502 0
-494 -495 0
-494 -496 0
-494 -497 0
-494 -498 0
-494 -499 0
-494 -500 0
-494 -501 0
-494 -502 0
-495 -496 0
-495 -497 0
-495 -498 0
-495 -499 0
-495 -500 0
-495 -501 0
-495 -502 0
-496 -497 0
-496 -498 0
-496 -499 0
-496 -500 0
-496 -501 0
-496 -502 0
-497 -498 0
-497 -499 0
-497 -500 0
-497 -501 0
-497 -502 0
-498 -499 0
-498 -500 0
-498 -501 0
-498 -502 0
-499 -500 0
-499 -501 0
-499 -502 0
-500 -501 0
-500 -502 0
-501 -502 0
503 504 505 506 507 508 509 510 511 0
-503 -504 0
-503 -505 0
-503 -506 0
-503 -507 0
-503 -508 0
-503 -509 0
-503 -510 0
-503 -511 0
-504 -505 0
-504 -506 0
-504 -507 0
-504 -508 0
-504 -509 0
-504 -510 0
-504 -511 0
-505 -506 0
-505 -507 0
-505 -508 0
-505 -509 0
-505 -510 0
-505 -511 0
-506 -507 0
-506 -508 0
-506 -509 0
-506 -510 0
-506 -511 0
-507 -508 0
-507 -509 0
-507 -510 0
-507 -511 0
-508 -509 0
-508 -510 0
-508 -511 0
-509 -510 0
-509 -511 0
-510 -511 0
512 513 514 515 516 517 518 519 520 0
-512 -513 0
-512 -514 0
-512 -515 0
-512 -516 0
-512 -517 0
-512 -518 0
-512 -519 0
-512 -520 0
-513 -514 0
-513 -515 0
-513 -516 0
-513 -517 0
-513 -518 0
-513 -519 0
-513 -520 0
-514 -515 0
-514 -516 0
-514 -517 0
-514 -518 0
-514 -519 0
-514 -520 0
-515 -516 0
-515 -517 0
-515 -518 0
-515 -519 0
-515 -520 0
-516 -517 0
-516 -518 0
-516 -519 0
-516 -520 0
-517 -518 0
-517 -519 0
-517 -520 0
-518 -519 0
-518 -520 0
-519 -520 0
521 522 523 524 525 526 527 528 529 0
-521 -522 0
-521 -523 0
-521 -524 0
-521 -525 0
-521 -526 0
-521 -527 0
-521 -528 0
-521 -529 0
-522 -523 0
-522 -524 0
-522 -525 0
-522 -526 0
-522 -527 0
-522 -528 0
-522 -529 0
-523 -524 0
-523 -525 0
-523 -526 0
-523 -527 0
-523 -528 0
-523 -529 0
-524 -525 0
-524 -526 0
-524 -527 0
-524 -528 0
-524 -529 0
-525 -526 0
-525 -527 0
-525 -528 0
-525 -529 0
-526 -527 0
-526 -528 0
-526 -529 0
-527 -528 0
-527 -529 0
-528 -529 0
530 531 532 533 534 535 536 537 538 0
-530 -531 0
-530 -532 0
-530 -533 0
-530 -534 0
-530 -535 0
-530 -536 0
-530 -537 0
-530 -538 0
-531 -532 0
-531 -533 0
-531 -534 0
-531 -535 0
-531 -536 0
-531 -537 0
-531 -538 0
-532 -533 0
-532 -534 0
-532 -535 0
-532 -536 0
-532 -537 0
-532 -538 0
-533 -534 0
-533 -535 0
-533 -536 0
-533 -537 0
-533 -538 0
-534 -535 0
-534 -536 0
-534 -537 0
-534 -538 0
-535 -536 0
-535 -537 0
-535 -538 0
-536 -537 0
-536 -538 0
-537 -538 0
539 540 541 542 543 544 545 546 547 0
-539 -540 0
-539 -541 0
-539 -542 0
-539 -543 0
-539 -544 0
-539 -545 0
-539 -546 0
-539 -547 0
-540 -541 0
-540 -542 0
-540 -543 0
-540 -544 0
-540 -545 0
-540 -546 0
-540 -547 0
-541 -542 0
-541 -543 0
-541 -544 0
-541 -545 0
-541 -546 0
-541 -547 0
-542 -543 0
-542 -544 0
-542 -545 0
-542 -546 0
-542 -547 0
-543 -544 0
-543 -545 0
-543 -546 0
-543 -547 0
-544 -545 0
-544 -546 0
-544 -547 0
-545 -546 0
-545 -547 0
-546 -547 0
548 549 550 551 552 553 554 555 556 0
-548 -549 0
-548 -550 0
-548 -551 0
-548 -552 0
-548 -553 0
-548 -554 0
-548 -555 0
-548 -556 0
-549 -550 0
-549 -551 0
-549 -552 0
-549 -553 0
-549 -554 0
-549 -555 0
-549 -556 0
-550 -551 0
-550 -552 0
-550 -553 0
-550 -554 0
-550 -555 0
-550 -556 0
-551 -552 0
-551 -553 0
-551 -554 0
-551 -555 0
-551 -556 0
-552 -553 0
-552 -554 0
-552 -555 0
-552 -556 0
-553 -554 0
-553 -555 0
-553 -556 0
-554 -555 0
-554 -556 0
-555 -556 0
557 558 559 560 561 562 563 564 565 0
-557 -558 0
-557 -559 0
-557 -560 0
-557 -561 0
-557 -562 0
-557 -563 0
-557 -564 0
-557 -565 0
-558 -559 0
-558 -560 0
-558 -561 0
-558 -562 0
-558 -563 0
-558 -564 0
-558 -565 0
-559 -560 0
-559 -561 0
-559 -562 0
-559 -563 0
-559 -564 0
-559 -565 0
-560 -561 0
-560 -562 0
-560 -563 0
-560 -564 0
-560 -565 0
-561 -562 0
-561 -563 0
-561 -564 0
-561 -565 0
-562 -563 0
-562 -564 0
-562 -565 0
-563 -564 0
-563 -565 0
-564 -565 0
566 567 568 569 17 570 571 572 573 0
-566 -567 0
-566 -568 0
-566 -569 0
-566 -17 0
-566 -570 0
-566 -571 0
-566 -572 0
-566 -573 0
-567 -568 0
-567 -569 0
-567 -17 0
-567 -570 0
-567 -571 0
-567 -572 0
-567 -573 0
-568 -569 0
-568 -17 0
-568 -570 0
-568 -571 0
-568 -572 0
-568 -573 0
-569 -17 0
-569 -570 0
-569 -571 0
-569 -572 0
-569 -573 0
-17 -570 0
-17 -571 0
-17 -572 0
-17 -573 0
-570 -571 0
-570 -572 0
-570 -573 0
-571 -572 0
-571 -573 0
-572 -573 0
574 575 576 577 578 579 580 18 581 0
-574 -575 0
-574 -576 0
-574 -577 0
-574 -578 0
-574 -579 0
-574 -580 0
-574 -18 0
-574 -581 0
-575 -576 0
-575 -577 0
-575 -578 0
-575 -579 0
-575 -580 0
-575 -18 0
-575 -581 0
-576 -577 0
-576 -578 0
-576 -579 0
-576 -580 0
-576 -18 0
-576 -581 0
-577 -578 0
-577 -579 0
-577 -580 0
-577 -18 0
-577 -581 0
-578 -579 0
-578 -580 0
-578 -18 0
-578 -581 0
-579 -580 0
-579 -18 0
-579 -581 0
-580 -18 0
-580 -581 0
-18 -581 0
582 583 584 585 586 587 588 589 590 0
-582 -583 0
-582 -584 0
-582 -585 0
-582 -586 0
-582 -587 0
-582 -588 0
-582 -589 0
-582 -590 0
-583 -584 0
-583 -585 0
-583 -586 0
-583 -587 0
-583 -588 0
-583 -589 0
-583 -590 0
-584 -585 0
-584 -586 0
-584 -587 0
-584 -588 0
-584 -589 0
-584 -590 0
-585 -586 0
-585 -587 0
-585 -588 0
-585 -589 0
-585 -590 0
-586 -587 0
-586 -588 0
-586 -589 0
-586 -590 0
-587 -588 0
-587 -589 0
-587 -590 0
-588 -589 0
-588 -590 0
-589 -590 0
591 592 593 594 595 596 597 598 599 0
-591 -592 0
-591 -593 0
-591 -594 0
-591 -595 0
-591 -596 0
-591 -597 0
-591 -598 0
-591 -599 0
-592 -593 0
-592 -594 0
-592 -595 0
-592 -596 0
-592 -597 0
-592 -598 0
-592 -599 0
-593 -594 0
-593 -595 0
-593 -596 0
-593 -597 0
-593 -598 0
-593 -599 0
-594 -595 0
-594 -596 0
-594 -597 0
-594 -598 0
-594 -599 0
-595 -596 0
-595 -597 0
-595 -598 0
-595 -599 0
-596 -597 0
-596 -598 0
-596 -599 0
-597 -598 0
-597 -599 0
-598 -599 0
600 19 601 602 603 604 605 606 607 0
-600 -19 0
-600 -601 0
-600 -602 0
-600 -603 0
-600 -604 0
-600 -605 0
-600 -606 0
-600 -607 0
-19 -601 0
-19 -602 0
-19 -603 0
-19 -604 0
-19 -605 0
-19 -606 0
-19 -607 0
-601 -602 0
-601 -603 0
-601 -604 0
-601 -605 0
-601 -606 0
-601 -607 0
-602 -603 0
-602 -604 0
-602 -605 0
-602 -606 0
-602 -607 0
-603 -604 0
-603 -605 0
-603 -606 0
-603 -607 0
-604 -605 0
-604 -606 0
-604 -607 0
-605 -606 0
-605 -607 0
-606 -607 0
608 609 610 611 612 613 614 615 616 0
-608 -609 0
-608 -610 0
-608 -611 0
-608 -612 0
-608 -613 0
-608 -614 0
-608 -615 0
-608 -616 0
-609 -610 0
-609 -611 0
-609 -612 0
-609 -613 0
-609 -614 0
-609 -615 0
-609 -616 0
-610 -611 0
-610 -612 0
-610 -613 0
-610 -614 0
-610 -615 0
-610 -616 0
-611 -612 0
-611 -613 0
-611 -614 0
-611 -615 0
-611 -616 0
-612 -613 0
-612 -614 0
-612 -615 0
-612 -616 0
-613 -614 0
-613 -615 0
-613 -616 0
-614 -615 0
-614 -616 0
-615 -616 0
617 618 619 620 621 622 623 624 625 0
-617 -618 0
-617 -619 0
-617 -620 0
-617 -621 0
-617 -622 0
-617 -623 0
-617 -624 0
-617 -625 0
-618 -619 0
-618 -620 0
-618 -621 0
-618 -622 0
-618 -623 0
-618 -624 0
-618 -625 0
-619 -620 0
-619 -621 0
-619 -622 0
-619 -623 0
-619 -624 0
-619 -625 0
-620 -621 0
-620 -622 0
-620 -623 0
-620 -624 0
-620 -625 0
-621 -622 0
-621 -623 0
-621 -624 0
-621 -625 0
-622 -623 0
-622 -624 0
-622 -625 0
-623 -624 0
-623 -625 0
-624 -625 0
20 626 627 628 629 630 631 632 633 0
-20 -626 0
-20 -627 0
-20 -628 0
-20 -629 0
-20 -630 0
-20 -631 0
-20 -632 0
-20 -633 0
-626 -627 0
-626 -628 0
-626 -629 0
-626 -630 0
-626 -631 0
-626 -632 0
-626 -633 0
-627 -628 0
-627 -629 0
-627 -630 0
-627 -631 0
-627 -632 0
-627 -633 0
-628 -629 0
-628 -630 0
-628 -631 0
-628 -632 0
-628 -633 0
-629 -630 0
-629 -631 0
-629 -632 0
-629 -633 0
-630 -631 0
-630 -632 0
-630 -633 0
-631 -632 0
-631 -633 0
-632 -633 0
634 635 21 636 637 638 639 640 641 0
-634 -635 0
-634 -21 0
-634 -636 0
-634 -637 0
-634 -638 0
-634 -639 0
-634 -640 0
-634 -641 0
-635 -21 0
-635 -636 0
-635 -637 0
-635 -638 0
-635 -639 0
-635 -640 0
-635 -641 0
-21 -636 0
-21 -637 0
-21 -638 0
-21 -639 0
-21 -640 0
-21 -641 0
-636 -637 0
-636 -638 0
-636 -639 0
-636 -640 0
-636 -641 0
-637 -638 0
-637 -639 0
-637 -640 0
-637 -641 0
-638 -639 0
-638 -640 0
-638 -641 0
-639 -640 0
-639 -641 0
-640 -641 0
642 643 644 645 646 647 648 649 650 0
-642 -643 0
-642 -644 0
-642 -645 0
-642 -646 0
-642 -647 0
-642 -648 0
-642 -649 0
-642 -650 0
-643 -644 0
-643 -645 0
-643 -646 0
-643 -647 0
-643 -648 0
-643 -649 0
-643 -650 0
-644 -645 0
-644 -646 0
-644 -647 0
-644 -648 0
-644 -649 0
-644 -650 0
-645 -646 0
-645 -647 0
-645 -648 0
-645 -649 0
-645 -650 0
-646 -647 0
-646 -648 0
-646 -649 0
-646 -650 0
-647 -648 0
-647 -649 0
-647 -650 0
-648 -649 0
-648 -650 0
-649 -650 0
651 652 653 654 655 656 657 658 659 0
-651 -652 0
-651 -653 0
-651 -654 0
-651 -655 0
-651 -656 0
-651 -657 0
-651 -658 0
-651 -659 0
-652 -653 0
-652 -654 0
-652 -655 0
-652 -656 0
-652 -657 0
-652 -658 0
-652 -659 0
-653 -654 0
-653 -655 0
-653 -656 0
-653 -657 0
-653 -658 0
-653 -659 0
-654 -655 0
-654 -656 0
-654 -657 0
-654 -658 0
-654 -659 0
-655 -656 0
-655 -657 0
-655 -658 0
-655 -659 0
-656 -657 0
-656 -658 0
-656 -659 0
-657 -658 0
-657 -659 0
-658 -659 0
660 661 662 663 664 665 666 667 22 0
-660 -661 0
-660 -662 0
-660 -663 0
-660 -664 0
-660 -665 0
-660 -666 0
-660 -667 0
-660 -22 0
-661 -662 0
-661 -663 0
-661 -664 0
-661 -665 0
-661 -666 0
-661 -667 0
-661 -22 0
-662 -663 0
-662 -664 0
-662 -665 0
-662 -666 0
-662 -667 0
-662 -22 0
-663 -664 0
-663 -665 0
-663 -666 0
-663 -667 0
-663 -22 0
-664 -665 0
-664 -666 0
-664 -667 0
-664 -22 0
-665 -666 0
-665 -667 0
-665 -22 0
-666 -667 0
-666 -22 0
-667 -22 0
668 669 670 671 672 673 674 675 676 0
-668 -669 0
-668 -670 0
-668 -671 0
-668 -672 0
-668 -673 0
-668 -674 0
-668 -675 0
-668 -676 0
-669 -670 0
-669 -671 0
-669 -672 0
-669 -673 0
-669 -674 0
-669 -675 0
-669 -676 0
-670 -671 0
-670 -672 0
-670 -673 0
-670 -674 0
-670 -675 0
-670 -676 0
-671 -672 0
-671 -673 0
-671 -674 0
-671 -675 0
-671 -676 0
-672 -673 0
-672 -674 0
-672 -675 0
-672 -676 0
-673 -674 0
-673 -675 0
-673 -676 0
-674 -675 0
-674 -676 0
-675 -676 0
677 678 679 680 681 682 683 684 685 0
-677 -678 0
-677 -679 0
-677 -680 0
-677 -681 0
-677 -682 0
-677 -683 0
-677 -684 0
-677 -685 0
-678 -679 0
-678 -680 0
-678 -681 0
-678 -682 0
-678 -683 0
-678 -684 0
-678 -685 0
-679 -680 0
-679 -681 0
-679 -682 0
-679 -683 0
-679 -684 0
-679 -685 0
-680 -681 0
-680 -682 0
-680 -683 0
-680 -684 0
-680 -685 0
-681 -682 0
-681 -683 0
-681 -684 0
-681 -685 0
-682 -683 0
-682 -684 0
-682 -685 0
-683 -684 0
-683 -685 0
-684 -685 0
686 687 688 689 690 691 692 693 694 0
-686 -687 0
-686 -688 0
-686 -689 0
-686 -690 0
-686 -691 0
-686 -692 0
-686 -693 0
-686 -694 0
-687 -688 0
-687 -689 0
-687 -690 0
-687 -691 0
-687 -692 0
-687 -693 0
-687 -694 0
-688 -689 0
-688 -690 0
-688 -691 0
-688 -692 0
-688 -693 0
-688 -694 0
-689 -690 0
-689 -691 0
-689 -692 0
-689 -693 0
-689 -694 0
-690 -691 0
-690 -692 0
-690 -693 0
-690 -694 0
-691 -692 0
-691 -693 0
-691 -694 0
-692 -693 0
-692 -694 0
-693 -694 0
695 696 697 23 698 699 700 701 702 0
-695 -696 0
-695 -697 0
-695 -23 0
-695 -698 0
-695 -699 0
-695 -700 0
-695 -701 0
-695 -702 0
-696 -697 0
-696 -23 0
-696 -698 0
-696 -699 0
-696 -700 0
-696 -701 0
-696 -702 0
-697 -23 0
-697 -698 0
-697 -699 0
-697 -700 0
-697 -701 0
-697 -702 0
-23 -698 0
-23 -699 0
-23 -700 0
-23 -701 0
-23 -702 0
-698 -699 0
-698 -700 0
-698 -701 0
-698 -702 0
-699 -700 0
-699 -701 0
-699 -702 0
-700 -701 0
-700 -702 0
-701 -702 0
703 704 705 706 707 708 709 710 711 0
-703 -704 0
-703 -705 0
-703 -706 0
-703 -707 0
-703 -708 0
-703 -709 0
-703 -710 0
-703 -711 0
-704 -705 0
-704 -706 0
-704 -707 0
-704 -708 0
-704 -709 0
-704 -710 0
-704 -711 0
-705 -706 0
-705 -707 0
-705 -708 0
-705 -709 0
-705 -710 0
-705 -711 0
-706 -707 0
-706 -708 0
-706 -709 0
-706 -710 0
-706 -711 0
-707 -708 0
-707 -709 0
-707 -710 0
-707 -711 0
-708 -709 0
-708 -710 0
-708 -711 0
-709 -710 0
-709 -711 0
-710 -711 0
712 713 714 715 716 717 718 719 720 0
-712 -713 0
-712 -714 0
-712 -715 0
-712 -716 0
-712 -717 0
-712 -718 0
-712 -719 0
-712 -720 0
-713 -714 0
-713 -715 0
-713 -716 0
-713 -717 0
-713 -718 0
-713 -719 0
-713 -720 0
-714 -715 0
-714 -716 0
-714 -717 0
-714 -718 0
-714 -719 0
-714 -720 0
-715 -716 0
-715 -717 0
-715 -718 0
-715 -719 0
-715 -720 0
-716 -717 0
-716 -718 0
-716 -719 0
-716 -720 0
-717 -718 0
-717 -719 0
-717 -720 0
-718 -719 0
-718 -720 0
-719 -720 0
721 722 723 724 725 726 727 728 729 0
-721 -722 0
-721 -723 0
-721 -724 0
-721 -725 0
-721 -726 0
-721 -727 0
-721 -728 0
-721 -729 0
-722 -723 0
-722 -724 0
-722 -725 0
-722 -726 0
-722 -727 0
-722 -728 0
-722 -729 0
-723 -724 0
-723 -725 0
-723 -726 0
-723 -727 0
-723 -728 0
-723 -729 0
-724 -725 0
-724 -726 0
-724 -727 0
-724 -728 0
-724 -729 0
-725 -726 0
-725 -727 0
-725 -728 0
-725 -729 0
-726 -727 0
-726 -728 0
-726 -729 0
-727 -728 0
-727 -729 0
-728 -729 0
24 100 179 258 335 415 494 574 651 0
-24 -100 0
-24 -179 0
-24 -258 0
-24 -335 0
-24 -415 0
-24 -494 0
-24 -574 0
-24 -651 0
-100 -179 0
-100 -258 0
-100 -335 0
-100 -415 0
-100 -494 0
-100 -574 0
-100 -651 0
-179 -258 0
-179 -335 0
-179 -415 0
-179 -494 0
-179 -574 0
-179 -651 0
-258 -335 0
-258 -415 0
-258 -494 0
-258 -574 0
-258 -651 0
-335 -415 0
-335 -494 0
-335 -574 0
-335 -651 0
-415 -494 0
-415 -574 0
-415 -651 0
-494 -574 0
-494 -651 0
-574 -651 0
25 101 180 259 336 416 495 575 652 0
-25 -101 0
-25 -180 0
-25 -259 0
-25 -336 0
-25 -416 0
-25 -495 0
-25 -575 0
-25 -652 0
-101 -180 0
-101 -259 0
-101 -336 0
-101 -416 0
-101 -495 0
-101 -575 0
-101 -652 0
-180 -259 0
-180 -336 0
-180 -416 0
-180 -495 0
-180 -575 0
-180 -652 0
-259 -336 0
-259 -416 0
-259 -495 0
-259 -575 0
-259 -652 0
-336 -416 0
-336 -495 0
-336 -575 0
-336 -652 0
-416 -495 0
-416 -575 0
-416 -652 0
-495 -575 0
-495 -652 0
-575 -652 0
26 102 181 10 337 417 496 576 653 0
-26 -102 0
-26 -181 0
-26 -10 0
-26 -337 0
-26 -417 0
-26 -496 0
-26 -576 0
-26 -653 0
-102 -181 0
-102 -10 0
-102 -337 0
-102 -417 0
-102 -496 0
-102 -576 0
-102 -653 0
-181 -10 0
-181 -337 0
-181 -417 0
-181 -496 0
-181 -576 0
-181 -653 0
-10 -337 0
-10 -417 0
-10 -496 0
-10 -576 0
-10 -653 0
-337 -417 0
-337 -496 0
-337 -576 0
-337 -653 0
-417 -496 0
-417 -576 0
-417 -653 0
-496 -576 0
-496 -653 0
-576 -653 0
27 103 182 260 338 418 497 577 654 0
-27 -103 0
-27 -182 0
-27 -260 0
-27 -338 0
-27 -418 0
-27 -497 0
-27 -577 0
-27 -654 0
-103 -182 0
-103 -260 0
-103 -338 0
-103 -418 0
-103 -497 0
-103 -577 0
-103 -654 0
-182 -260 0
-182 -338 0
-182 -418 0
-182 -497 0
-182 -577 0
-182 -654 0
-260 -338 0
-260 -418 0
-260 -497 0
-260 -577 0
-260 -654 0
-338 -418 0
-338 -497 0
-338 -577 0
-338 -654 0
-418 -497 0
-418 -577 0
-418 -654 0
-497 -577 0
-497 -654 0
-577 -654 0
28 6 183 261 339 419 498 578 655 0
-28 -6 0
-28 -183 0
-28 -261 0
-28 -339 0
-28 -419 0
-28 -498 0
-28 -578 0
-28 -655 0
-6 -183 0
-6 -261 0
-6 -339 0
-6 -419 0
-6 -498 0
-6 -578 0
-6 -655 0
-183 -261 0
-183 -339 0
-183 -419 0
-183 -498 0
-183 -578 0
-183 -655 0
-261 -339 0
-261 -419 0
-261 -498 0
-261 -578 0
-261 -655 0
-339 -419 0
-339 -498 0
-339 -578 0
-339 -655 0
-419 -498 0
-419 -578 0
-419 -655 0
-498 -578 0
-498 -655 0
-578 -655 0
29 104 184 262 340 420 499 579 656 0
-29 -104 0
-29 -184 0
-29 -262 0
-29 -340 0
-29 -420 0
-29 -499 0
-29 -579 0
-29 -656 0
-104 -184 0
-104 -262 0
-104 -340 0
-104 -420 0
-104 -499 0
-104 -579 0
-104 -656 0
-184 -262 0
-184 -340 0
-184 -420 0
-184 -499 0
-184 -579 0
-184 -656 0
-262 -340 0
-262 -420 0
-262 -499 0
-262 -579 0
-262 -656 0
-340 -420 0
-340 -499 0
-340 -579 0
-340 -656 0
-420 -499 0
-420 -579 0
-420 -656 0
-499 -579 0
-499 -656 0
-579 -656 0
30 105 185 263 341 421 500 580 657 0
-30 -105 0
-30 -185 0
-30 -263 0
-30 -341 0
-30 -421 0
-30 -500 0
-30 -580 0
-30 -657 0
-105 -185 0
-105 -263 0
-105 -341 0
-105 -421 0
-105 -500 0
-105 -580 0
-105 -657 0
-185 -263 0
-185 -341 0
-185 -421 0
-185 -500 0
-185 -580 0
-185 -657 0
-263 -341 0
-263 -421 0
-263 -500 0
-263 -580 0
-263 -657 0
-341 -421 0
-341 -500 0
-341 -580 0
-341 -657 0
-421 -500 0
-421 -580 0
-421 -657 0
-500 -580 0
-500 -657 0
-580 -657 0
31 106 186 264 342 422 501 18 658 0
-31 -106 0
-31 -186 0
-31 -264 0
-31 -342 0
-31 -422 0
-31 -501 0
-31 -18 0
-31 -658 0
-106 -186 0
-106 -264 0
-106 -342 0
-106 -422 0
-106 -501 0
-106 -18 0
-106 -658 0
-186 -264 0
-186 -342 0
-186 -422 0
-186 -501 0
-186 -18 0
-186 -658 0
-264 -342 0
-264 -422 0
-264 -501 0
-264 -18 0
-264 -658 0
-342 -422 0
-342 -501 0
-342 -18 0
-342 -658 0
-422 -501 0
-422 -18 0
-422 -658 0
-501 -18 0
-501 -658 0
-18 -658 0
32 107 187 265 343 423 502 581 659 0
-32 -107 0
-32 -187 0
-32 -265 0
-32 -343 0
-32 -423 0
-32 -502 0
-32 -581 0
-32 -659 0
-107 -187 0
-107 -265 0
-107 -343 0
-107 -423 0
-107 -502 0
-107 -581 0
-107 -659 0
-187 -265 0
-187 -343 0
-187 -423 0
-187 -502 0
-187 -581 0
-187 -659 0
-265 -343 0
-265 -423 0
-265 -502 0
-265 -581 0
-265 -659 0
-343 -423 0
-343 -502 0
-343 -581 0
-343 -659 0
-423 -502 0
-423 -581 0
-423 -659 0
-502 -581 0
-502 -659 0
-581 -659 0
33 108 188 266 344 424 503 582 660 0
-33 -108 0
-33 -188 0
-33 -266 0
-33 -344 0
-33 -424 0
-33 -503 0
-33 -582 0
-33 -660 0
-108 -188 0
-108 -266 0
-108 -344 0
-108 -424 0
-108 -503 0
-108 -582 0
-108 -660 0
-188 -266 0
-188 -344 0
-188 -424 0
-188 -503 0
-188 -582 0
-188 -660 0
-266 -344 0
-266 -424 0
-266 -503 0
-266 -582 0
-266 -660 0
-344 -424 0
-344 -503 0
-344 -582 0
-344 -660 0
-424 -503 0
-424 -582 0
-424 -660 0
-503 -582 0
-503 -660 0
-582 -660 0
34 109 189 267 345 425 504 583 661 0
-34 -109 0
-34 -189 0
-34 -267 0
-34 -345 0
-34 -425 0
-34 -504 0
-34 -583 0
-34 -661 0
-109 -189 0
-109 -267 0
-109 -345 0
-109 -425 0
-109 -504 0
-109 -583 0
-109 -661 0
-189 -267 0
-189 -345 0
-189 -425 0
-189 -504 0
-189 -583 0
-189 -661 0
-267 -345 0
-267 -425 0
-267 -504 0
-267 -583 0
-267 -661 0
-345 -425 0
-345 -504 0
-345 -583 0
-345 -661 0
-425 -504 0
-425 -583 0
-425 -661 0
-504 -583 0
-504 -661 0
-583 -661 0
35 110 190 268 346 426 505 584 662 0
-35 -110 0
-35 -190 0
-35 -268 0
-35 -346 0
-35 -426 0
-35 -505 0
-35 -584 0
-35 -662 0
-110 -190 0
-110 -268 0
-110 -346 0
-110 -426 0
-110 -505 0
-110 -584 0
-110 -662 0
-190 -268 0
-190 -346 0
-190 -426 0
-190 -505 0
-190 -584 0
-190 -662 0
-268 -346 0
-268 -426 0
-268 -505 0
-268 -584 0
-268 -662 0
-346 -426 0
-346 -505 0
-346 -584 0
-346 -662 0
-426 -505 0
-426 -584 0
-426 -662 0
-505 -584 0
-505 -662 0
-584 -662 0
36 111 191 269 347 427 506 585 663 0
-36 -111 0
-36 -191 0
-36 -269 0
-36 -347 0
-36 -427 0
-36 -506 0
-36 -585 0
-36 -663 0
-111 -191 0
-111 -269 0
-111 -347 0
-111 -427 0
-111 -506 0
-111 -585 0
-111 -663 0
-191 -269 0
-191 -347 0
-191 -427 0
-191 -506 0
-191 -585 0
-191 -663 0
-269 -347 0
-269 -427 0
-269 -506 0
-269 -585 0
-269 -663 0
-347 -427 0
-347 -506 0
-347 -585 0
-347 -663 0
-427 -506 0
-427 -585 0
-427 -663 0
-506 -585 0
-506 -663 0
-585 -663 0
37 112 192 270 348 428 507 586 664 0
-37 -112 0
-37 -192 0
-37 -270 0
-37 -348 0
-37 -428 0
-37 -507 0
-37 -586 0
-37 -664 0
-112 -192 0
-112 -270 0
-112 -348 0
-112 -428 0
-112 -507 0
-112 -586 0
-112 -664 0
-192 -270 0
-192 -348 0
-192 -428 0
-192 -507 0
-192 -586 0
-192 -664 0
-270 -348 0
-270 -428 0
-270 -507 0
-270 -586 0
-270 -664 0
-348 -428 0
-348 -507 0
-348 -586 0
-348 -664 0
-428 -507 0
-428 -586 0
-428 -664 0
-507 -586 0
-507 -664 0
-586 -664 0
38 113 193 271 349 429 508 587 665 0
-38 -113 0
-38 -193 0
-38 -271 0
-38 -349 0
-38 -429 0
-38 -508 0
-38 -587 0
-38 -665 0
-113 -193 0
-113 -271 0
-113 -349 0
-113 -429 0
-113 -508 0
-113 -587 0
-113 -665 0
-193 -271 0
-193 -349 0
-193 -429 0
-193 -508 0
-193 -587 0
-193 -665 0
-271 -349 0
-271 -429 0
-271 -508 0
-271 -587 0
-271 -665 0
-349 -429 0
-349 -508 0
-349 -587 0
-349 -665 0
-429 -508 0
-429 -587 0
-429 -665 0
-508 -587 0
-508 -665 0
-587 -665 0
39 114 194 272 350 430 509 588 666 0
-39 -114 0
-39 -194 0
-39 -272 0
-39 -350 0
-39 -430 0
-39 -509 0
-39 -588 0
-39 -666 0
-114 -194 0
-114 -272 0
-114 -350 0
-114 -430 0
-114 -509 0
-114 -588 0
-114 -666 0
-194 -272 0
-194 -350 0
-194 -430 0
-194 -509 0
-194 -588 0
-194 -666 0
-272 -350 0
-272 -430 0
-272 -509 0
-272 -588 0
-272 -666 0
-350 -430 0
-350 -509 0
-350 -588 0
-350 -666 0
-430 -509 0
-430 -588 0
-430 -666 0
-509 -588 0
-509 -666 0
-588 -666 0
1 115 195 273 351 431 510 589 667 0
-1 -115 0
-1 -195 0
-1 -273 0
-1 -351 0
-1 -431 0
-1 -510 0
-1 -589 0
-1 -667 0
-115 -195 0
-115 -273 0
-115 -351 0
-115 -431 0
-115 -510 0
-115 -589 0
-115 -667 0
-195 -273 0
-195 -351 0
-195 -431 0
-195 -510 0
-195 -589 0
-195 -667 0
-273 -351 0
-273 -431 0
-273 -510 0
-273 -589 0
-273 -667 0
-351 -431 0
-351 -510 0
-351 -589 0
-351 -667 0
-431 -510 0
-431 -589 0
-431 -667 0
-510 -589 0
-510 -667 0
-589 -667 0
40 116 196 274 352 432 511 590 22 0
-40 -116 0
-40 -196 0
-40 -274 0
-40 -352 0
-40 -432 0
-40 -511 0
-40 -590 0
-40 -22 0
-116 -196 0
-116 -274 0
-116 -352 0
-116 -432 0
-116 -511 0
-116 -590 0
-116 -22 0
-196 -274 0
-196 -352 0
-196 -432 0
-196 -511 0
-196 -590 0
-196 -22 0
-274 -352 0
-274 -432 0
-274 -511 0
-274 -590 0
-274 -22 0
-352 -432 0
-352 -511 0
-352 -590 0
-352 -22 0
-432 -511 0
-432 -590 0
-432 -22 0
-511 -590 0
-511 -22 0
-590 -22 0
41 117 197 275 353 15 512 591 668 0
-41 -117 0
-41 -197 0
-41 -275 0
-41 -353 0
-41 -15 0
-41 -512 0
-41 -591 0
-41 -668 0
-117 -197 0
-117 -275 0
-117 -353 0
-117 -15 0
-117 -512 0
-117 -591 0
-117 -668 0
-197 -275 0
-197 -353 0
-197 -15 0
-197 -512 0
-197 -591 0
-197 -668 0
-275 -353 0
-275 -15 0
-275 -512 0
-275 -591 0
-275 -668 0
-353 -15 0
-353 -512 0
-353 -591 0
-353 -668 0
-15 -512 0
-15 -591 0
-15 -668 0
-512 -591 0
-512 -668 0
-591 -668 0
42 118 198 276 354 433 513 592 669 0
-42 -118 0
-42 -198 0
-42 -276 0
-42 -354 0
-42 -433 0
-42 -513 0
-42 -592 0
-42 -669 0
-118 -198 0
-118 -276 0
-118 -354 0
-118 -433 0
-118 -513 0
-118 -592 0
-118 -669 0
-198 -276 0
-198 -354 0
-198 -433 0
-198 -513 0
-198 -592 0
-198 -669 0
-276 -354 0
-276 -433 0
-276 -513 0
-276 -592 0
-276 -669 0
-354 -433 0
-354 -513 0
-354 -592 0
-354 -669 0
-433 -513 0
-433 -592 0
-433 -669 0
-513 -592 0
-513 -669 0
-592 -669 0
2 119 199 277 355 434 514 593 670 0
-2 -119 0
-2 -199 0
-2 -277 0
-2 -355 0
-2 -434 0
-2 -514 0
-2 -593 0
-2 -670 0
-119 -199 0
-119 -277 0
-119 -355 0
-119 -434 0
-119 -514 0
-119 -593 0
-119 -670 0
-199 -277 0
-199 -355 0
-199 -434 0
-199 -514 0
-199 -593 0
-199 -670 0
-277 -355 0
-277 -434 0
-277 -514 0
-277 -593 0
-277 -670 0
-355 -434 0
-355 -514 0
-355 -593 0
-355 -670 0
-434 -514 0
-434 -593 0
-434 -670 0
-514 -593 0
-514 -670 0
-593 -670 0
43 120 200 278 356 435 515 594 671 0
-43 -120 0
-43 -200 0
-43 -278 0
-43 -356 0
-43 -435 0
-43 -515 0
-43 -594 0
-43 -671 0
-120 -200 0
-120 -278 0
-120 -356 0
-120 -435 0
-120 -515 0
-120 -594 0
-120 -671 0
-200 -278 0
-200 -356 0
-200 -435 0
-200 -515 0
-200 -594 0
-200 -671 0
-278 -356 0
-278 -435 0
-278 -515 0
-278 -594 0
-278 -671 0
-356 -435 0
-356 -515 0
-356 -594 0
-356 -671 0
-435 -515 0
-435 -594 0
-435 -671 0
-515 -594 0
-515 -671 0
-594 -671 0
44 121 201 279 357 436 516 595 672 0
-44 -121 0
-44 -201 0
-44 -279 0
-44 -357 0
-44 -436 0
-44 -516 0
-44 -595 0
-44 -672 0
-121 -201 0
-121 -279 0
-121 -357 0
-121 -436 0
-121 -516 0
-121 -595 0
-121 -672 0
-201 -279 0
-201 -357 0
-201 -436 0
-201 -516 0
-201 -595 0
-201 -672 0
-279 -357 0
-279 -436 0
-279 -516 0
-279 -595 0
-279 -672 0
-357 -436 0
-357 -516 0
-357 -595 0
-357 -672 0
-436 -516 0
-436 -595 0
-436 -672 0
-516 -595 0
-516 -672 0
-595 -672 0
45 122 202 280 358 437 517 596 673 0
-45 -122 0
-45 -202 0
-45 -280 0
-45 -358 0
-45 -437 0
-45 -517 0
-45 -596 0
-45 -673 0
-122 -202 0
-122 -280 0
-122 -358 0
-122 -437 0
-122 -517 0
-122 -596 0
-122 -673 0
-202 -280 0
-202 -358 0
-202 -437 0
-202 -517 0
-202 -596 0
-202 -673 0
-280 -358 0
-280 -437 0
-280 -517 0
-280 -596 0
-280 -673 0
-358 -437 0
-358 -517 0
-358 -596 0
-358 -673 0
-437 -517 0
-437 -596 0
-437 -673 0
-517 -596 0
-517 -673 0
-596 -673 0
46 123 203 281 359 438 518 597 674 0
-46 -123 0
-46 -203 0
-46 -281 0
-46 -359 0
-46 -438 0
-46 -518 0
-46 -597 0
-46 -674 0
-123 -203 0
-123 -281 0
-123 -359 0
-123 -438 0
-123 -518 0
-123 -597 0
-123 -674 0
-203 -281 0
-203 -359 0
-203 -438 0
-203 -518 0
-203 -597 0
-203 -674 0
-281 -359 0
-281 -438 0
-281 -518 0
-281 -597 0
-281 -674 0
-359 -438 0
-359 -518 0
-359 -597 0
-359 -674 0
-438 -518 0
-438 -597 0
-438 -674 0
-518 -597 0
-518 -674 0
-597 -674 0
47 124 204 282 360 439 519 598 675 0
-47 -124 0
-47 -204 0
-47 -282 0
-47 -360 0
-47 -439 0
-47 -519 0
-47 -598 0
-47 -675 0
-124 -204 0
-124 -282 0
-124 -360 0
-124 -439 0
-124 -519 0
-124 -598 0
-124 -675 0
-204 -282 0
-204 -360 0
-204 -439 0
-204 -519 0
-204 -598 0
-204 -675 0
-282 -360 0
-282 -439 0
-282 -519 0
-282 -598 0
-282 -675 0
-360 -439 0
-360 -519 0
-360 -598 0
-360 -675 0
-439 -519 0
-439 -598 0
-439 -675 0
-519 -598 0
-519 -675 0
-598 -675 0
48 125 205 283 361 440 520 599 676 0
-48 -125 0
-48 -205 0
-48 -283 0
-48 -361 0
-48 -440 0
-48 -520 0
-48 -599 0
-48 -676 0
-125 -205 0
-125 -283 0
-125 -361 0
-125 -440 0
-125 -520 0
-125 -599 0
-125 -676 0
-205 -283 0
-205 -361 0
-205 -440 0
-205 -520 0
-205 -599 0
-205 -676 0
-283 -361 0
-283 -440 0
-283 -520 0
-283 -599 0
-283 -676 0
-361 -440 0
-361 -520 0
-361 -599 0
-361 -676 0
-440 -520 0
-440 -599 0
-440 -676 0
-520 -599 0
-520 -676 0
-599 -676 0
49 126 206 11 362 441 521 600 677 0
-49 -126 0
-49 -206 0
-49 -11 0
-49 -362 0
-49 -441 0
-49 -521 0
-49 -600 0
-49 -677 0
-126 -206 0
-126 -11 0
-126 -362 0
-126 -441 0
-126 -521 0
-126 -600 0
-126 -677 0
-206 -11 0
-206 -362 0
-206 -441 0
-206 -521 0
-206 -600 0
-206 -677 0
-11 -362 0
-11 -441 0
-11 -521 0
-11 -600 0
-11 -677 0
-362 -441 0
-362 -521 0
-362 -600 0
-362 -677 0
-441 -521 0
-441 -600 0
-441 -677 0
-521 -600 0
-521 -677 0
-600 -677 0
50 127 207 284 363 442 522 19 678 0
-50 -127 0
-50 -207 0
-50 -284 0
-50 -363 0
-50 -442 0
-50 -522 0
-50 -19 0
-50 -678 0
-127 -207 0
-127 -284 0
-127 -363 0
-127 -442 0
-127 -522 0
-127 -19 0
-127 -678 0
-207 -284 0
-207 -363 0
-207 -442 0
-207 -522 0
-207 -19 0
-207 -678 0
-284 -363 0
-284 -442 0
-284 -522 0
-284 -19 0
-284 -678 0
-363 -442 0
-363 -522 0
-363 -19 0
-363 -678 0
-442 -522 0
-442 -19 0
-442 -678 0
-522 -19 0
-522 -678 0
-19 -678 0
51 128 208 285 364 443 523 601 679 0
-51 -128 0
-51 -208 0
-51 -285 0
-51 -364 0
-51 -443 0
-51 -523 0
-51 -601 0
-51 -679 0
-128 -208 0
-128 -285 0
-128 -364 0
-128 -443 0
-128 -523 0
-128 -601 0
-128 -679 0
-208 -285 0
-208 -364 0
-208 -443 0
-208 -523 0
-208 -601 0
-208 -679 0
-285 -364 0
-285 -443 0
-285 -523 0
-285 -601 0
-285 -679 0
-364 -443 0
-364 -523 0
-364 -601 0
-364 -679 0
-443 -523 0
-443 -601 0
-443 -679 0
-523 -601 0
-523 -679 0
-601 -679 0
52 129 209 286 365 444 524 602 680 0
-52 -129 0
-52 -209 0
-52 -286 0
-52 -365 0
-52 -444 0
-52 -524 0
-52 -602 0
-52 -680 0
-129 -209 0
-129 -286 0
-129 -365 0
-129 -444 0
-129 -524 0
-129 -602 0
-129 -680 0
-209 -286 0
-209 -365 0
-209 -444 0
-209 -524 0
-209 -602 0
-209 -680 0
-286 -365 0
-286 -444 0
-286 -524 0
-286 -602 0
-286 -680 0
-365 -444 0
-365 -524 0
-365 -602 0
-365 -680 0
-444 -524 0
-444 -602 0
-444 -680 0
-524 -602 0
-524 -680 0
-602 -680 0
53 130 210 287 366 445 525 603 681 0
-53 -130 0
-53 -210 0
-53 -287 0
-53 -366 0
-53 -445 0
-53 -525 0
-53 -603 0
-53 -681 0
-130 -210 0
-130 -287 0
-130 -366 0
-130 -445 0
-130 -525 0
-130 -603 0
-130 -681 0
-210 -287 0
-210 -366 0
-210 -445 0
-210 -525 0
-210 -603 0
-210 -681 0
-287 -366 0
-287 -445 0
-287 -525 0
-287 -603 0
-287 -681 0
-366 -445 0
-366 -525 0
-366 -603 0
-366 -681 0
-445 -525 0
-445 -603 0
-445 -681 0
-525 -603 0
-525 -681 0
-603 -681 0
54 131 211 288 367 446 526 604 682 0
-54 -131 0
-54 -211 0
-54 -288 0
-54 -367 0
-54 -446 0
-54 -526 0
-54 -604 0
-54 -682 0
-131 -211 0
-131 -288 0
-131 -367 0
-131 -446 0
-131 -526 0
-131 -604 0
-131 -682 0
-211 -288 0
-211 -367 0
-211 -446 0
-211 -526 0
-211 -604 0
-211 -682 0
-288 -367 0
-288 -446 0
-288 -526 0
-288 -604 0
-288 -682 0
-367 -446 0
-367 -526 0
-367 -604 0
-367 -682 0
-446 -526 0
-446 -604 0
-446 -682 0
-526 -604 0
-526 -682 0
-604 -682 0
55 132 8 289 368 447 527 605 683 0
-55 -132 0
-55 -8 0
-55 -289 0
-55 -368 0
-55 -447 0
-55 -527 0
-55 -605 0
-55 -683 0
-132 -8 0
-132 -289 0
-132 -368 0
-132 -447 0
-132 -527 0
-132 -605 0
-132 -683 0
-8 -289 0
-8 -368 0
-8 -447 0
-8 -527 0
-8 -605 0
-8 -683 0
-289 -368 0
-289 -447 0
-289 -527 0
-289 -605 0
-289 -683 0
-368 -447 0
-368 -527 0
-368 -605 0
-368 -683 0
-447 -527 0
-447 -605 0
-447 -683 0
-527 -605 0
-527 -683 0
-605 -683 0
56 133 212 290 369 448 528 606 684 0
-56 -133 0
-56 -212 0
-56 -290 0
-56 -369 0
-56 -448 0
-56 -528 0
-56 -606 0
-56 -684 0
-133 -212 0
-133 -290 0
-133 -369 0
-133 -448 0
-133 -528 0
-133 -606 0
-133 -684 0
-212 -290 0
-212 -369 0
-212 -448 0
-212 -528 0
-212 -606 0
-212 -684 0
-290 -369 0
-290 -448 0
-290 -528 0
-290 -606 0
-290 -684 0
-369 -448 0
-369 -528 0
-369 -606 0
-369 -684 0
-448 -528 0
-448 -606 0
-448 -684 0
-528 -606 0
-528 -684 0
-606 -684 0
57 134 213 291 370 449 529 607 685 0
-57 -134 0
-57 -213 0
-57 -291 0
-57 -370 0
-57 -449 0
-57 -529 0
-57 -607 0
-57 -685 0
-134 -213 0
-134 -291 0
-134 -370 0
-134 -449 0
-134 -529 0
-134 -607 0
-134 -685 0
-213 -291 0
-213 -370 0
-213 -449 0
-213 -529 0
-213 -607 0
-213 -685 0
-291 -370 0
-291 -449 0
-291 -529 0
-291 -607 0
-291 -685 0
-370 -449 0
-370 -529 0
-370 -607 0
-370 -685 0
-449 -529 0
-449 -607 0
-449 -685 0
-529 -607 0
-529 -685 0
-607 -685 0
58 135 214 292 371 450 530 608 686 0
-58 -135 0
-58 -214 0
-58 -292 0
-58 -371 0
-58 -450 0
-58 -530 0
-58 -608 0
-58 -686 0
-135 -214 0
-135 -292 0
-135 -371 0
-135 -450 0
-135 -530 0
-135 -608 0
-135 -686 0
-214 -292 0
-214 -371 0
-214 -450 0
-214 -530 0
-214 -608 0
-214 -686 0
-292 -371 0
-292 -450 0
-292 -530 0
-292 -608 0
-292 -686 0
-371 -450 0
-371 -530 0
-371 -608 0
-371 -686 0
-450 -530 0
-450 -608 0
-450 -686 0
-530 -608 0
-530 -686 0
-608 -686 0
59 136 215 293 372 16 531 609 687 0
-59 -136 0
-59 -215 0
-59 -293 0
-59 -372 0
-59 -16 0
-59 -531 0
-59 -609 0
-59 -687 0
-136 -215 0
-136 -293 0
-136 -372 0
-136 -16 0
-136 -531 0
-136 -609 0
-136 -687 0
-215 -293 0
-215 -372 0
-215 -16 0
-215 -531 0
-215 -609 0
-215 -687 0
-293 -372 0
-293 -16 0
-293 -531 0
-293 -609 0
-293 -687 0
-372 -16 0
-372 -531 0
-372 -609 0
-372 -687 0
-16 -531 0
-16 -609 0
-16 -687 0
-531 -609 0
-531 -687 0
-609 -687 0
60 137 216 294 373 451 532 610 688 0
-60 -137 0
-60 -216 0
-60 -294 0
-60 -373 0
-60 -451 0
-60 -532 0
-60 -610 0
-60 -688 0
-137 -216 0
-137 -294 0
-137 -373 0
-137 -451 0
-137 -532 0
-137 -610 0
-137 -688 0
-216 -294 0
-216 -373 0
-216 -451 0
-216 -532 0
-216 -610 0
-216 -688 0
-294 -373 0
-294 -451 0
-294 -532 0
-294 -610 0
-294 -688 0
-373 -451 0
-373 -532 0
-373 -610 0
-373 -688 0
-451 -532 0
-451 -610 0
-451 -688 0
-532 -610 0
-532 -688 0
-610 -688 0
61 138 217 295 374 452 533 611 689 0
-61 -138 0
-61 -217 0
-61 -295 0
-61 -374 0
-61 -452 0
-61 -533 0
-61 -611 0
-61 -689 0
-138 -217 0
-138 -295 0
-138 -374 0
-138 -452 0
-138 -533 0
-138 -611 0
-138 -689 0
-217 -295 0
-217 -374 0
-217 -452 0
-217 -533 0
-217 -611 0
-217 -689 0
-295 -374 0
-295 -452 0
-295 -533 0
-295 -611 0
-295 -689 0
-374 -452 0
-374 -533 0
-374 -611 0
-374 -689 0
-452 -533 0
-452 -611 0
-452 -689 0
-533 -611 0
-533 -689 0
-611 -689 0
62 139 218 296 375 453 534 612 690 0
-62 -139 0
-62 -218 0
-62 -296 0
-62 -375 0
-62 -453 0
-62 -534 0
-62 -612 0
-62 -690 0
-139 -218 0
-139 -296 0
-139 -375 0
-139 -453 0
-139 -534 0
-139 -612 0
-139 -690 0
-218 -296 0
-218 -375 0
-218 -453 0
-218 -534 0
-218 -612 0
-218 -690 0
-296 -375 0
-296 -453 0
-296 -534 0
-296 -612 0
-296 -690 0
-375 -453 0
-375 -534 0
-375 -612 0
-375 -690 0
-453 -534 0
-453 -612 0
-453 -690 0
-534 -612 0
-534 -690 0
-612 -690 0
63 140 219 297 376 454 535 613 691 0
-63 -140 0
-63 -219 0
-63 -297 0
-63 -376 0
-63 -454 0
-63 -535 0
-63 -613 0
-63 -691 0
-140 -219 0
-140 -297 0
-140 -376 0
-140 -454 0
-140 -535 0
-140 -613 0
-140 -691 0
-219 -297 0
-219 -376 0
-219 -454 0
-219 -535 0
-219 -613 0
-219 -691 0
-297 -376 0
-297 -454 0
-297 -535 0
-297 -613 0
-297 -691 0
-376 -454 0
-376 -535 0
-376 -613 0
-376 -691 0
-454 -535 0
-454 -613 0
-454 -691 0
-535 -613 0
-535 -691 0
-613 -691 0
64 141 220 298 377 455 536 614 692 0
-64 -141 0
-64 -220 0
-64 -298 0
-64 -377 0
-64 -455 0
-64 -536 0
-64 -614 0
-64 -692 0
-141 -220 0
-141 -298 0
-141 -377 0
-141 -455 0
-141 -536 0
-141 -614 0
-141 -692 0
-220 -298 0
-220 -377 0
-220 -455 0
-220 -536 0
-220 -614 0
-220 -692 0
-298 -377 0
-298 -455 0
-298 -536 0
-298 -614 0
-298 -692 0
-377 -455 0
-377 -536 0
-377 -614 0
-377 -692 0
-455 -536 0
-455 -614 0
-455 -692 0
-536 -614 0
-536 -692 0
-614 -692 0
65 142 221 299 378 456 537 615 693 0
-65 -142 0
-65 -221 0
-65 -299 0
-65 -378 0
-65 -456 0
-65 -537 0
-65 -615 0
-65 -693 0
-142 -221 0
-142 -299 0
-142 -378 0
-142 -456 0
-142 -537 0
-142 -615 0
-142 -693 0
-221 -299 0
-221 -378 0
-221 -456 0
-221 -537 0
-221 -615 0
-221 -693 0
-299 -378 0
-299 -456 0
-299 -537 0
-299 -615 0
-299 -693 0
-378 -456 0
-378 -537 0
-378 -615 0
-378 -693 0
-456 -537 0
-456 -615 0
-456 -693 0
-537 -615 0
-537 -693 0
-615 -693 0
3 143 222 300 379 457 538 616 694 0
-3 -143 0
-3 -222 0
-3 -300 0
-3 -379 0
-3 -457 0
-3 -538 0
-3 -616 0
-3 -694 0
-143 -222 0
-143 -300 0
-143 -379 0
-143 -457 0
-143 -538 0
-143 -616 0
-143 -694 0
-222 -300 0
-222 -379 0
-222 -457 0
-222 -538 0
-222 -616 0
-222 -694 0
-300 -379 0
-300 -457 0
-300 -538 0
-300 -616 0
-300 -694 0
-379 -457 0
-379 -538 0
-379 -616 0
-379 -694 0
-457 -538 0
-457 -616 0
-457 -694 0
-538 -616 0
-538 -694 0
-616 -694 0
66 144 223 301 380 458 539 617 695 0
-66 -144 0
-66 -223 0
-66 -301 0
-66 -380 0
-66 -458 0
-66 -539 0
-66 -617 0
-66 -695 0
-144 -223 0
-144 -301 0
-144 -380 0
-144 -458 0
-144 -539 0
-144 -617 0
-144 -695 0
-223 -301 0
-223 -380 0
-223 -458 0
-223 -539 0
-223 -617 0
-223 -695 0
-301 -380 0
-301 -458 0
-301 -539 0
-301 -617 0
-301 -695 0
-380 -458 0
-380 -539 0
-380 -617 0
-380 -695 0
-458 -539 0
-458 -617 0
-458 -695 0
-539 -617 0
-539 -695 0
-617 -695 0
67 145 224 302 381 459 540 618 696 0
-67 -145 0
-67 -224 0
-67 -302 0
-67 -381 0
-67 -459 0
-67 -540 0
-67 -618 0
-67 -696 0
-145 -224 0
-145 -302 0
-145 -381 0
-145 -459 0
-145 -540 0
-145 -618 0
-145 -696 0
-224 -302 0
-224 -381 0
-224 -459 0
-224 -540 0
-224 -618 0
-224 -696 0
-302 -381 0
-302 -459 0
-302 -540 0
-302 -618 0
-302 -696 0
-381 -459 0
-381 -540 0
-381 -618 0
-381 -696 0
-459 -540 0
-459 -618 0
-459 -696 0
-540 -618 0
-540 -696 0
-618 -696 0
68 146 225 303 382 460 541 619 697 0
-68 -146 0
-68 -225 0
-68 -303 0
-68 -382 0
-68 -460 0
-68 -541 0
-68 -619 0
-68 -697 0
-146 -225 0
-146 -303 0
-146 -382 0
-146 -460 0
-146 -541 0
-146 -619 0
-146 -697 0
-225 -303 0
-225 -382 0
-225 -460 0
-225 -541 0
-225 -619 0
-225 -697 0
-303 -382 0
-303 -460 0
-303 -541 0
-303 -619 0
-303 -697 0
-382 -460 0
-382 -541 0
-382 -619 0
-382 -697 0
-460 -541 0
-460 -619 0
-460 -697 0
-541 -619 0
-541 -697 0
-619 -697 0
69 147 226 304 383 461 542 620 23 0
-69 -147 0
-69 -226 0
-69 -304 0
-69 -383 0
-69 -461 0
-69 -542 0
-69 -620 0
-69 -23 0
-147 -226 0
-147 -304 0
-147 -383 0
-147 -461 0
-147 -542 0
-147 -620 0
-147 -23 0
-226 -304 0
-226 -383 0
-226 -461 0
-226 -542 0
-226 -620 0
-226 -23 0
-304 -383 0
-304 -461 0
-304 -542 0
-304 -620 0
-304 -23 0
-383 -461 0
-383 -542 0
-383 -620 0
-383 -23 0
-461 -542 0
-461 -620 0
-461 -23 0
-542 -620 0
-542 -23 0
-620 -23 0
70 148 227 305 384 462 543 621 698 0
-70 -148 0
-70 -227 0
-70 -305 0
-70 -384 0
-70 -462 0
-70 -543 0
-70 -621 0
-70 -698 0
-148 -227 0
-148 -305 0
-148 -384 0
-148 -462 0
-148 -543 0
-148 -621 0
-148 -698 0
-227 -305 0
-227 -384 0
-227 -462 0
-227 -543 0
-227 -621 0
-227 -698 0
-305 -384 0
-305 -462 0
-305 -543 0
-305 -621 0
-305 -698 0
-384 -462 0
-384 -543 0
-384 -621 0
-384 -698 0
-462 -543 0
-462 -621 0
-462 -698 0
-543 -621 0
-543 -698 0
-621 -698 0
71 149 228 306 385 463 544 622 699 0
-71 -149 0
-71 -228 0
-71 -306 0
-71 -385 0
-71 -463 0
-71 -544 0
-71 -622 0
-71 -699 0
-149 -228 0
-149 -306 0
-149 -385 0
-149 -463 0
-149 -544 0
-149 -622 0
-149 -699 0
-228 -306 0
-228 -385 0
-228 -463 0
-228 -544 0
-228 -622 0
-228 -699 0
-306 -385 0
-306 -463 0
-306 -544 0
-306 -622 0
-306 -699 0
-385 -463 0
-385 -544 0
-385 -622 0
-385 -699 0
-463 -544 0
-463 -622 0
-463 -699 0
-544 -622 0
-544 -699 0
-622 -699 0
72 150 229 307 386 464 545 623 700 0
-72 -150 0
-72 -229 0
-72 -307 0
-72 -386 0
-72 -464 0
-72 -545 0
-72 -623 0
-72 -700 0
-150 -229 0
-150 -307 0
-150 -386 0
-150 -464 0
-150 -545 0
-150 -623 0
-150 -700 0
-229 -307 0
-229 -386 0
-229 -464 0
-229 -545 0
-229 -623 0
-229 -700 0
-307 -386 0
-307 -464 0
-307 -545 0
-307 -623 0
-307 -700 0
-386 -464 0
-386 -545 0
-386 -623 0
-386 -700 0
-464 -545 0
-464 -623 0
-464 -700 0
-545 -623 0
-545 -700 0
-623 -700 0
73 151 230 308 387 465 546 624 701 0
-73 -151 0
-73 -230 0
-73 -308 0
-73 -387 0
-73 -465 0
-73 -546 0
-73 -624 0
-73 -701 0
-151 -230 0
-151 -308 0
-151 -387 0
-151 -465 0
-151 -546 0
-151 -624 0
-151 -701 0
-230 -308 0
-230 -387 0
-230 -465 0
-230 -546 0
-230 -624 0
-230 -701 0
-308 -387 0
-308 -465 0
-308 -546 0
-308 -624 0
-308 -701 0
-387 -465 0
-387 -546 0
-387 -624 0
-387 -701 0
-465 -546 0
-465 -624 0
-465 -701 0
-546 -624 0
-546 -701 0
-624 -701 0
74 152 231 309 388 466 547 625 702 0
-74 -152 0
-74 -231 0
-74 -309 0
-74 -388 0
-74 -466 0
-74 -547 0
-74 -625 0
-74 -702 0
-152 -231 0
-152 -309 0
-152 -388 0
-152 -466 0
-152 -547 0
-152 -625 0
-152 -702 0
-231 -309 0
-231 -388 0
-231 -466 0
-231 -547 0
-231 -625 0
-231 -702 0
-309 -388 0
-309 -466 0
-309 -547 0
-309 -625 0
-309 -702 0
-388 -466 0
-388 -547 0
-388 -625 0
-388 -702 0
-466 -547 0
-466 -625 0
-466 -702 0
-547 -625 0
-547 -702 0
-625 -702 0
75 153 232 310 389 467 548 20 703 0
-75 -153 0
-75 -232 0
-75 -310 0
-75 -389 0
-75 -467 0
-75 -548 0
-75 -20 0
-75 -703 0
-153 -232 0
-153 -310 0
-153 -389 0
-153 -467 0
-153 -548 0
-153 -20 0
-153 -703 0
-232 -310 0
-232 -389 0
-232 -467 0
-232 -548 0
-232 -20 0
-232 -703 0
-310 -389 0
-310 -467 0
-310 -548 0
-310 -20 0
-310 -703 0
-389 -467 0
-389 -548 0
-389 -20 0
-389 -703 0
-467 -548 0
-467 -20 0
-467 -703 0
-548 -20 0
-548 -703 0
-20 -703 0
76 154 233 311 390 468 549 626 704 0
-76 -154 0
-76 -233 0
-76 -311 0
-76 -390 0
-76 -468 0
-76 -549 0
-76 -626 0
-76 -704 0
-154 -233 0
-154 -311 0
-154 -390 0
-154 -468 0
-154 -549 0
-154 -626 0
-154 -704 0
-233 -311 0
-233 -390 0
-233 -468 0
-233 -549 0
-233 -626 0
-233 -704 0
-311 -390 0
-311 -468 0
-311 -549 0
-311 -626 0
-311 -704 0
-390 -468 0
-390 -549 0
-390 -626 0
-390 -704 0
-468 -549 0
-468 -626 0
-468 -704 0
-549 -626 0
-549 -704 0
-626 -704 0
77 155 234 312 391 469 550 627 705 0
-77 -155 0
-77 -234 0
-77 -312 0
-77 -391 0
-77 -469 0
-77 -550 0
-77 -627 0
-77 -705 0
-155 -234 0
-155 -312 0
-155 -391 0
-155 -469 0
-155 -550 0
-155 -627 0
-155 -705 0
-234 -312 0
-234 -391 0
-234 -469 0
-234 -550 0
-234 -627 0
-234 -705 0
-312 -391 0
-312 -469 0
-312 -550 0
-312 -627 0
-312 -705 0
-391 -469 0
-391 -550 0
-391 -627 0
-391 -705 0
-469 -550 0
-469 -627 0
-469 -705 0
-550 -627 0
-550 -705 0
-627 -705 0
78 156 235 313 392 470 551 628 706 0
-78 -156 0
-78 -235 0
-78 -313 0
-78 -392 0
-78 -470 0
-78 -551 0
-78 -628 0
-78 -706 0
-156 -235 0
-156 -313 0
-156 -392 0
-156 -470 0
-156 -551 0
-156 -628 0
-156 -706 0
-235 -313 0
-235 -392 0
-235 -470 0
-235 -551 0
-235 -628 0
-235 -706 0
-313 -392 0
-313 -470 0
-313 -551 0
-313 -628 0
-313 -706 0
-392 -470 0
-392 -551 0
-392 -628 0
-392 -706 0
-470 -551 0
-470 -628 0
-470 -706 0
-551 -628 0
-551 -706 0
-628 -706 0
79 157 236 314 393 471 552 629 707 0
-79 -157 0
-79 -236 0
-79 -314 0
-79 -393 0
-79 -471 0
-79 -552 0
-79 -629 0
-79 -707 0
-157 -236 0
-157 -314 0
-157 -393 0
-157 -471 0
-157 -552 0
-157 -629 0
-157 -707 0
-236 -314 0
-236 -393 0
-236 -471 0
-236 -552 0
-236 -629 0
-236 -707 0
-314 -393 0
-314 -471 0
-314 -552 0
-314 -629 0
-314 -707 0
-393 -471 0
-393 -552 0
-393 -629 0
-393 -707 0
-471 -552 0
-471 -629 0
-471 -707 0
-552 -629 0
-552 -707 0
-629 -707 0
80 158 237 315 14 472 553 630 708 0
-80 -158 0
-80 -237 0
-80 -315 0
-80 -14 0
-80 -472 0
-80 -553 0
-80 -630 0
-80 -708 0
-158 -237 0
-158 -315 0
-158 -14 0
-158 -472 0
-158 -553 0
-158 -630 0
-158 -708 0
-237 -315 0
-237 -14 0
-237 -472 0
-237 -553 0
-237 -630 0
-237 -708 0
-315 -14 0
-315 -472 0
-315 -553 0
-315 -630 0
-315 -708 0
-14 -472 0
-14 -553 0
-14 -630 0
-14 -708 0
-472 -553 0
-472 -630 0
-472 -708 0
-553 -630 0
-553 -708 0
-630 -708 0
4 159 238 316 394 473 554 631 709 0
-4 -159 0
-4 -238 0
-4 -316 0
-4 -394 0
-4 -473 0
-4 -554 0
-4 -631 0
-4 -709 0
-159 -238 0
-159 -316 0
-159 -394 0
-159 -473 0
-159 -554 0
-159 -631 0
-159 -709 0
-238 -316 0
-238 -394 0
-238 -473 0
-238 -554 0
-238 -631 0
-238 -709 0
-316 -394 0
-316 -473 0
-316 -554 0
-316 -631 0
-316 -709 0
-394 -473 0
-394 -554 0
-394 -631 0
-394 -709 0
-473 -554 0
-473 -631 0
-473 -709 0
-554 -631 0
-554 -709 0
-631 -709 0
81 160 239 12 395 474 555 632 710 0
-81 -160 0
-81 -239 0
-81 -12 0
-81 -395 0
-81 -474 0
-81 -555 0
-81 -632 0
-81 -710 0
-160 -239 0
-160 -12 0
-160 -395 0
-160 -474 0
-160 -555 0
-160 -632 0
-160 -710 0
-239 -12 0
-239 -395 0
-239 -474 0
-239 -555 0
-239 -632 0
-239 -710 0
-12 -395 0
-12 -474 0
-12 -555 0
-12 -632 0
-12 -710 0
-395 -474 0
-395 -555 0
-395 -632 0
-395 -710 0
-474 -555 0
-474 -632 0
-474 -710 0
-555 -632 0
-555 -710 0
-632 -710 0
82 161 240 317 396 475 556 633 711 0
-82 -161 0
-82 -240 0
-82 -317 0
-82 -396 0
-82 -475 0
-82 -556 0
-82 -633 0
-82 -711 0
-161 -240 0
-161 -317 0
-161 -396 0
-161 -475 0
-161 -556 0
-161 -633 0
-161 -711 0
-240 -317 0
-240 -396 0
-240 -475 0
-240 -556 0
-240 -633 0
-240 -711 0
-317 -396 0
-317 -475 0
-317 -556 0
-317 -633 0
-317 -711 0
-396 -475 0
-396 -556 0
-396 -633 0
-396 -711 0
-475 -556 0
-475 -633 0
-475 -711 0
-556 -633 0
-556 -711 0
-633 -711 0
83 162 241 318 397 476 557 634 712 0
-83 -162 0
-83 -241 0
-83 -318 0
-83 -397 0
-83 -476 0
-83 -557 0
-83 -634 0
-83 -712 0
-162 -241 0
-162 -318 0
-162 -397 0
-162 -476 0
-162 -557 0
-162 -634 0
-162 -712 0
-241 -318 0
-241 -397 0
-241 -476 0
-241 -557 0
-241 -634 0
-241 -712 0
-318 -397 0
-318 -476 0
-318 -557 0
-318 -634 0
-318 -712 0
-397 -476 0
-397 -557 0
-397 -634 0
-397 -712 0
-476 -557 0
-476 -634 0
-476 -712 0
-557 -634 0
-557 -712 0
-634 -712 0
84 163 242 319 398 477 558 635 713 0
-84 -163 0
-84 -242 0
-84 -319 0
-84 -398 0
-84 -477 0
-84 -558 0
-84 -635 0
-84 -713 0
-163 -242 0
-163 -319 0
-163 -398 0
-163 -477 0
-163 -558 0
-163 -635 0
-163 -713 0
-242 -319 0
-242 -398 0
-242 -477 0
-242 -558 0
-242 -635 0
-242 -713 0
-319 -398 0
-319 -477 0
-319 -558 0
-319 -635 0
-319 -713 0
-398 -477 0
-398 -558 0
-398 -635 0
-398 -713 0
-477 -558 0
-477 -635 0
-477 -713 0
-558 -635 0
-558 -713 0
-635 -713 0
85 164 243 320 399 478 559 21 714 0
-85 -164 0
-85 -243 0
-85 -320 0
-85 -399 0
-85 -478 0
-85 -559 0
-85 -21 0
-85 -714 0
-164 -243 0
-164 -320 0
-164 -399 0
-164 -478 0
-164 -559 0
-164 -21 0
-164 -714 0
-243 -320 0
-243 -399 0
-243 -478 0
-243 -559 0
-243 -21 0
-243 -714 0
-320 -399 0
-320 -478 0
-320 -559 0
-320 -21 0
-320 -714 0
-399 -478 0
-399 -559 0
-399 -21 0
-399 -714 0
-478 -559 0
-478 -21 0
-478 -714 0
-559 -21 0
-559 -714 0
-21 -714 0
86 165 244 321 400 479 560 636 715 0
-86 -165 0
-86 -244 0
-86 -321 0
-86 -400 0
-86 -479 0
-86 -560 0
-86 -636 0
-86 -715 0
-165 -244 0
-165 -321 0
-165 -400 0
-165 -479 0
-165 -560 0
-165 -636 0
-165 -715 0
-244 -321 0
-244 -400 0
-244 -479 0
-244 -560 0
-244 -636 0
-244 -715 0
-321 -400 0
-321 -479 0
-321 -560 0
-321 -636 0
-321 -715 0
-400 -479 0
-400 -560 0
-400 -636 0
-400 -715 0
-479 -560 0
-479 -636 0
-479 -715 0
-560 -636 0
-560 -715 0
-636 -715 0
5 166 245 322 401 480 561 637 716 0
-5 -166 0
-5 -245 0
-5 -322 0
-5 -401 0
-5 -480 0
-5 -561 0
-5 -637 0
-5 -716 0
-166 -245 0
-166 -322 0
-166 -401 0
-166 -480 0
-166 -561 0
-166 -637 0
-166 -716 0
-245 -322 0
-245 -401 0
-245 -480 0
-245 -561 0
-245 -637 0
-245 -716 0
-322 -401 0
-322 -480 0
-322 -561 0
-322 -637 0
-322 -716 0
-401 -480 0
-401 -561 0
-401 -637 0
-401 -716 0
-480 -561 0
-480 -637 0
-480 -716 0
-561 -637 0
-561 -716 0
-637 -716 0
87 167 246 323 402 481 562 638 717 0
-87 -167 0
-87 -246 0
-87 -323 0
-87 -402 0
-87 -481 0
-87 -562 0
-87 -638 0
-87 -717 0
-167 -246 0
-167 -323 0
-167 -402 0
-167 -481 0
-167 -562 0
-167 -638 0
-167 -717 0
-246 -323 0
-246 -402 0
-246 -481 0
-246 -562 0
-246 -638 0
-246 -717 0
-323 -402 0
-323 -481 0
-323 -562 0
-323 -638 0
-323 -717 0
-402 -481 0
-402 -562 0
-402 -638 0
-402 -717 0
-481 -562 0
-481 -638 0
-481 -717 0
-562 -638 0
-562 -717 0
-638 -717 0
88 168 247 13 403 482 563 639 718 0
-88 -168 0
-88 -247 0
-88 -13 0
-88 -403 0
-88 -482 0
-88 -563 0
-88 -639 0
-88 -718 0
-168 -247 0
-168 -13 0
-168 -403 0
-168 -482 0
-168 -563 0
-168 -639 0
-168 -718 0
-247 -13 0
-247 -403 0
-247 -482 0
-247 -563 0
-247 -639 0
-247 -718 0
-13 -403 0
-13 -482 0
-13 -563 0
-13 -639 0
-13 -718 0
-403 -482 0
-403 -563 0
-403 -639 0
-403 -718 0
-482 -563 0
-482 -639 0
-482 -718 0
-563 -639 0
-563 -718 0
-639 -718 0
89 169 248 324 404 483 564 640 719 0
-89 -169 0
-89 -248 0
-89 -324 0
-89 -404 0
-89 -483 0
-89 -564 0
-89 -640 0
-89 -719 0
-169 -248 0
-169 -324 0
-169 -404 0
-169 -483 0
-169 -564 0
-169 -640 0
-169 -719 0
-248 -324 0
-248 -404 0
-248 -483 0
-248 -564 0
-248 -640 0
-248 -719 0
-324 -404 0
-324 -483 0
-324 -564 0
-324 -640 0
-324 -719 0
-404 -483 0
-404 -564 0
-404 -640 0
-404 -719 0
-483 -564 0
-483 -640 0
-483 -719 0
-564 -640 0
-564 -719 0
-640 -719 0
90 170 249 325 405 484 565 641 720 0
-90 -170 0
-90 -249 0
-90 -325 0
-90 -405 0
-90 -484 0
-90 -565 0
-90 -641 0
-90 -720 0
-170 -249 0
-170 -325 0
-170 -405 0
-170 -484 0
-170 -565 0
-170 -641 0
-170 -720 0
-249 -325 0
-249 -405 0
-249 -484 0
-249 -565 0
-249 -641 0
-249 -720 0
-325 -405 0
-325 -484 0
-325 -565 0
-325 -641 0
-325 -720 0
-405 -484 0
-405 -565 0
-405 -641 0
-405 -720 0
-484 -565 0
-484 -641 0
-484 -720 0
-565 -641 0
-565 -720 0
-641 -720 0
91 171 250 326 406 485 566 642 721 0
-91 -171 0
-91 -250 0
-91 -326 0
-91 -406 0
-91 -485 0
-91 -566 0
-91 -642 0
-91 -721 0
-171 -250 0
-171 -326 0
-171 -406 0
-171 -485 0
-171 -566 0
-171 -642 0
-171 -721 0
-250 -326 0
-250 -406 0
-250 -485 0
-250 -566 0
-250 -642 0
-250 -721 0
-326 -406 0
-326 -485 0
-326 -566 0
-326 -642 0
-326 -721 0
-406 -485 0
-406 -566 0
-406 -642 0
-406 -721 0
-485 -566 0
-485 -642 0
-485 -721 0
-566 -642 0
-566 -721 0
-642 -721 0
92 7 251 327 407 486 567 643 722 0
-92 -7 0
-92 -251 0
-92 -327 0
-92 -407 0
-92 -486 0
-92 -567 0
-92 -643 0
-92 -722 0
-7 -251 0
-7 -327 0
-7 -407 0
-7 -486 0
-7 -567 0
-7 -643 0
-7 -722 0
-251 -327 0
-251 -407 0
-251 -486 0
-251 -567 0
-251 -643 0
-251 -722 0
-327 -407 0
-327 -486 0
-327 -567 0
-327 -643 0
-327 -722 0
-407 -486 0
-407 -567 0
-407 -643 0
-407 -722 0
-486 -567 0
-486 -643 0
-486 -722 0
-567 -643 0
-567 -722 0
-643 -722 0
93 172 252 328 408 487 568 644 723 0
-93 -172 0
-93 -252 0
-93 -328 0
-93 -408 0
-93 -487 0
-93 -568 0
-93 -644 0
-93 -723 0
-172 -252 0
-172 -328 0
-172 -408 0
-172 -487 0
-172 -568 0
-172 -644 0
-172 -723 0
-252 -328 0
-252 -408 0
-252 -487 0
-252 -568 0
-252 -644 0
-252 -723 0
-328 -408 0
-328 -487 0
-328 -568 0
-328 -644 0
-328 -723 0
-408 -487 0
-408 -568 0
-408 -644 0
-408 -723 0
-487 -568 0
-487 -644 0
-487 -723 0
-568 -644 0
-568 -723 0
-644 -723 0
94 173 253 329 409 488 569 645 724 0
-94 -173 0
-94 -253 0
-94 -329 0
-94 -409 0
-94 -488 0
-94 -569 0
-94 -645 0
-94 -724 0
-173 -253 0
-173 -329 0
-173 -409 0
-173 -488 0
-173 -569 0
-173 -645 0
-173 -724 0
-253 -329 0
-253 -409 0
-253 -488 0
-253 -569 0
-253 -645 0
-253 -724 0
-329 -409 0
-329 -488 0
-329 -569 0
-329 -645 0
-329 -724 0
-409 -488 0
-409 -569 0
-409 -645 0
-409 -724 0
-488 -569 0
-488 -645 0
-488 -724 0
-569 -645 0
-569 -724 0
-645 -724 0
95 174 254 330 410 489 17 646 725 0
-95 -174 0
-95 -254 0
-95 -330 0
-95 -410 0
-95 -489 0
-95 -17 0
-95 -646 0
-95 -725 0
-174 -254 0
-174 -330 0
-174 -410 0
-174 -489 0
-174 -17 0
-174 -646 0
-174 -725 0
-254 -330 0
-254 -410 0
-254 -489 0
-254 -17 0
-254 -646 0
-254 -725 0
-330 -410 0
-330 -489 0
-330 -17 0
-330 -646 0
-330 -725 0
-410 -489 0
-410 -17 0
-410 -646 0
-410 -725 0
-489 -17 0
-489 -646 0
-489 -725 0
-17 -646 0
-17 -725 0
-646 -725 0
96 175 9 331 411 490 570 647 726 0
-96 -175 0
-96 -9 0
-96 -331 0
-96 -411 0
-96 -490 0
-96 -570 0
-96 -647 0
-96 -726 0
-175 -9 0
-175 -331 0
-175 -411 0
-175 -490 0
-175 -570 0
-175 -647 0
-175 -726 0
-9 -331 0
-9 -411 0
-9 -490 0
-9 -570 0
-9 -647 0
-9 -726 0
-331 -411 0
-331 -490 0
-331 -570 0
-331 -647 0
-331 -726 0
-411 -490 0
-411 -570 0
-411 -647 0
-411 -726 0
-490 -570 0
-490 -647 0
-490 -726 0
-570 -647 0
-570 -726 0
-647 -726 0
97 176 255 332 412 491 571 648 727 0
-97 -176 0
-97 -255 0
-97 -332 0
-97 -412 0
-97 -491 0
-97 -571 0
-97 -648 0
-97 -727 0
-176 -255 0
-176 -332 0
-176 -412 0
-176 -491 0
-176 -571 0
-176 -648 0
-176 -727 0
-255 -332 0
-255 -412 0
-255 -491 0
-255 -571 0
-255 -648 0
-255 -727 0
-332 -412 0
-332 -491 0
-332 -571 0
-332 -648 0
-332 -727 0
-412 -491 0
-412 -571 0
-412 -648 0
-412 -727 0
-491 -571 0
-491 -648 0
-491 -727 0
-571 -648 0
-571 -727 0
-648 -727 0
98 177 256 333 413 492 572 649 728 0
-98 -177 0
-98 -256 0
-98 -333 0
-98 -413 0
-98 -492 0
-98 -572 0
-98 -649 0
-98 -728 0
-177 -256 0
-177 -333 0
-177 -413 0
-177 -492 0
-177 -572 0
-177 -649 0
-177 -728 0
-256 -333 0
-256 -413 0
-256 -492 0
-256 -572 0
-256 -649 0
-256 -728 0
-333 -413 0
-333 -492 0
-333 -572 0
-333 -649 0
-333 -728 0
-413 -492 0
-413 -572 0
-413 -649 0
-413 -728 0
-492 -572 0
-492 -649 0
-492 -728 0
-572 -649 0
-572 -728 0
-649 -728 0
99 178 257 334 414 493 573 650 729 0
-99 -178 0
-99 -257 0
-99 -334 0
-99 -414 0
-99 -493 0
-99 -573 0
-99 -650 0
-99 -729 0
-178 -257 0
-178 -334 0
-178 -414 0
-178 -493 0
-178 -573 0
-178 -650 0
-178 -729 0
-257 -334 0
-257 -414 0
-257 -493 0
-257 -573 0
-257 -650 0
-257 -729 0
-334 -414 0
-334 -493 0
-334 -573 0
-334 -650 0
-334 -729 0
-414 -493 0
-414 -573 0
-414 -650 0
-414 -729 0
-493 -573 0
-493 -650 0
-493 -729 0
-573 -650 0
-573 -729 0
-650 -729 0
24 33 41 49 58 66 75 83 91 0
-24 -33 0
-24 -41 0
-24 -49 0
-24 -58 0
-24 -66 0
-24 -75 0
-24 -83 0
-24 -91 0
-33 -41 0
-33 -49 0
-33 -58 0
-33 -66 0
-33 -75 0
-33 -83 0
-33 -91 0
-41 -49 0
-41 -58 0
-41 -66 0
-41 -75 0
-41 -83 0
-41 -91 0
-49 -58 0
-49 -66 0
-49 -75 0
-49 -83 0
-49 -91 0
-58 -66 0
-58 -75 0
-58 -83 0
-58 -91 0
-66 -75 0
-66 -83 0
-66 -91 0
-75 -83 0
-75 -91 0
-83 -91 0
25 34 42 50 59 67 76 84 92 0
-25 -34 0
-25 -42 0
-25 -50 0
-25 -59 0
-25 -67 0
-25 -76 0
-25 -84 0
-25 -92 0
-34 -42 0
-34 -50 0
-34 -59 0
-34 -67 0
-34 -76 0
-34 -84 0
-34 -92 0
-42 -50 0
-42 -59 0
-42 -67 0
-42 -76 0
-42 -84 0
-42 -92 0
-50 -59 0
-50 -67 0
-50 -76 0
-50 -84 0
-50 -92 0
-59 -67 0
-59 -76 0
-59 -84 0
-59 -92 0
-67 -76 0
-67 -84 0
-67 -92 0
-76 -84 0
-76 -92 0
-84 -92 0
26 35 2 51 60 68 77 85 93 0
-26 -35 0
-26 -2 0
-26 -51 0
-26 -60 0
-26 -68 0
-26 -77 0
-26 -85 0
-26 -93 0
-35 -2 0
-35 -51 0
-35 -60 0
-35 -68 0
-35 -77 0
-35 -85 0
-35 -93 0
-2 -51 0
-2 -60 0
-2 -68 0
-2 -77 0
-2 -85 0
-2 -93 0
-51 -60 0
-51 -68 0
-51 -77 0
-51 -85 0
-51 -93 0
-60 -68 0
-60 -77 0
-60 -85 0
-60 -93 0
-68 -77 0
-68 -85 0
-68 -93 0
-77 -85 0
-77 -93 0
-85 -93 0
27 36 43 52 61 69 78 86 94 0
-27 -36 0
-27 -43 0
-27 -52 0
-27 -61 0
-27 -69 0
-27 -78 0
-27 -86 0
-27 -94 0
-36 -43 0
-36 -52 0
-36 -61 0
-36 -69 0
-36 -78 0
-36 -86 0
-36 -94 0
-43 -52 0
-43 -61 0
-43 -69 0
-43 -78 0
-43 -86 0
-43 -94 0
-52 -61 0
-52 -69 0
-52 -78 0
-52 -86 0
-52 -94 0
-61 -69 0
-61 -78 0
-61 -86 0
-61 -94 0
-69 -78 0
-69 -86 0
-69 -94 0
-78 -86 0
-78 -94 0
-86 -94 0
28 37 44 53 62 70 79 5 95 0
-28 -37 0
-28 -44 0
-28 -53 0
-28 -62 0
-28 -70 0
-28 -79 0
-28 -5 0
-28 -95 0
-37 -44 0
-37 -53 0
-37 -62 0
-37 -70 0
-37 -79 0
-37 -5 0
-37 -95 0
-44 -53 0
-44 -62 0
-44 -70 0
-44 -79 0
-44 -5 0
-44 -95 0
-53 -62 0
-53 -70 0
-53 -79 0
-53 -5 0
-53 -95 0
-62 -70 0
-62 -79 0
-62 -5 0
-62 -95 0
-70 -79 0
-70 -5 0
-70 -95 0
-79 -5 0
-79 -95 0
-5 -95 0
29 38 45 54 63 71 80 87 96 0
-29 -38 0
-29 -45 0
-29 -54 0
-29 -63 0
-29 -71 0
-29 -80 0
-29 -87 0
-29 -96 0
-38 -45 0
-38 -54 0
-38 -63 0
-38 -71 0
-38 -80 0
-38 -87 0
-38 -96 0
-45 -54 0
-45 -63 0
-45 -71 0
-45 -80 0
-45 -87 0
-45 -96 0
-54 -63 0
-54 -71 0
-54 -80 0
-54 -87 0
-54 -96 0
-63 -71 0
-63 -80 0
-63 -87 0
-63 -96 0
-71 -80 0
-71 -87 0
-71 -96 0
-80 -87 0
-80 -96 0
-87 -96 0
30 39 46 55 64 72 4 88 97 0
-30 -39 0
-30 -46 0
-30 -55 0
-30 -64 0
-30 -72 0
-30 -4 0
-30 -88 0
-30 -97 0
-39 -46 0
-39 -55 0
-39 -64 0
-39 -72 0
-39 -4 0
-39 -88 0
-39 -97 0
-46 -55 0
-46 -64 0
-46 -72 0
-46 -4 0
-46 -88 0
-46 -97 0
-55 -64 0
-55 -72 0
-55 -4 0
-55 -88 0
-55 -97 0
-64 -72 0
-64 -4 0
-64 -88 0
-64 -97 0
-72 -4 0
-72 -88 0
-72 -97 0
-4 -88 0
-4 -97 0
-88 -97 0
31 1 47 56 65 73 81 89 98 0
-31 -1 0
-31 -47 0
-31 -56 0
-31 -65 0
-31 -73 0
-31 -81 0
-31 -89 0
-31 -98 0
-1 -47 0
-1 -56 0
-1 -65 0
-1 -73 0
-1 -81 0
-1 -89 0
-1 -98 0
-47 -56 0
-47 -65 0
-47 -73 0
-47 -81 0
-47 -89 0
-47 -98 0
-56 -65 0
-56 -73 0
-56 -81 0
-56 -89 0
-56 -98 0
-65 -73 0
-65 -81 0
-65 -89 0
-65 -98 0
-73 -81 0
-73 -89 0
-73 -98 0
-81 -89 0
-81 -98 0
-89 -98 0
32 40 48 57 3 74 82 90 99 0
-32 -40 0
-32 -48 0
-32 -57 0
-32 -3 0
-32 -74 0
-32 -82 0
-32 -90 0
-32 -99 0
-40 -48 0
-40 -57 0
-40 -3 0
-40 -74 0
-40 -82 0
-40 -90 0
-40 -99 0
-48 -57 0
-48 -3 0
-48 -74 0
-48 -82 0
-48 -90 0
-48 -99 0
-57 -3 0
-57 -74 0
-57 -82 0
-57 -90 0
-57 -99 0
-3 -74 0
-3 -82 0
-3 -90 0
-3 -99 0
-74 -82 0
-74 -90 0
-74 -99 0
-82 -90 0
-82 -99 0
-90 -99 0
100 108 117 126 135 144 153 162 171 0
-100 -108 0
-100 -117 0
-100 -126 0
-100 -135 0
-100 -144 0
-100 -153 0
-100 -162 0
-100 -171 0
-108 -117 0
-108 -126 0
-108 -135 0
-108 -144 0
-108 -153 0
-108 -162 0
-108 -171 0
-117 -126 0
-117 -135 0
-117 -144 0
-117 -153 0
-117 -162 0
-117 -171 0
-126 -135 0
-126 -144 0
-126 -153 0
-126 -162 0
-126 -171 0
-135 -144 0
-135 -153 0
-135 -162 0
-135 -171 0
-144 -153 0
-144 -162 0
-144 -171 0
-153 -162 0
-153 -171 0
-162 -171 0
101 109 118 127 136 145 154 163 7 0
-101 -109 0
-101 -118 0
-101 -127 0
-101 -136 0
-101 -145 0
-101 -154 0
-101 -163 0
-101 -7 0
-109 -118 0
-109 -127 0
-109 -136 0
-109 -145 0
-109 -154 0
-109 -163 0
-109 -7 0
-118 -127 0
-118 -136 0
-118 -145 0
-118 -154 0
-118 -163 0
-118 -7 0
-127 -136 0
-127 -145 0
-127 -154 0
-127 -163 0
-127 -7 0
-136 -145 0
-136 -154 0
-136 -163 0
-136 -7 0
-145 -154 0
-145 -163 0
-145 -7 0
-154 -163 0
-154 -7 0
-163 -7 0
102 110 119 128 137 146 155 164 172 0
-102 -110 0
-102 -119 0
-102 -128 0
-102 -137 0
-102 -146 0
-102 -155 0
-102 -164 0
-102 -172 0
-110 -119 0
-110 -128 0
-110 -137 0
-110 -146 0
-110 -155 0
-110 -164 0
-110 -172 0
-119 -128 0
-119 -137 0
-119 -146 0
-119 -155 0
-119 -164 0
-119 -172 0
-128 -137 0
-128 -146 0
-128 -155 0
-128 -164 0
-128 -172 0
-137 -146 0
-137 -155 0
-137 -164 0
-137 -172 0
-146 -155 0
-146 -164 0
-146 -172 0
-155 -164 0
-155 -172 0
-164 -172 0
103 111 120 129 138 147 156 165 173 0
-103 -111 0
-103 -120 0
-103 -129 0
-103 -138 0
-103 -147 0
-103 -156 0
-103 -165 0
-103 -173 0
-111 -120 0
-111 -129 0
-111 -138 0
-111 -147 0
-111 -156 0
-111 -165 0
-111 -173 0
-120 -129 0
-120 -138 0
-120 -147 0
-120 -156 0
-120 -165 0
-120 -173 0
-129 -138 0
-129 -147 0
-129 -156 0
-129 -165 0
-129 -173 0
-138 -147 0
-138 -156 0
-138 -165 0
-138 -173 0
-147 -156 0
-147 -165 0
-147 -173 0
-156 -165 0
-156 -173 0
-165 -173 0
6 112 121 130 139 148 157 166 174 0
-6 -112 0
-6 -121 0
-6 -130 0
-6 -139 0
-6 -148 0
-6 -157 0
-6 -166 0
-6 -174 0
-112 -121 0
-112 -130 0
-112 -139 0
-112 -148 0
-112 -157 0
-112 -166 0
-112 -174 0
-121 -130 0
-121 -139 0
-121 -148 0
-121 -157 0
-121 -166 0
-121 -174 0
-130 -139 0
-130 -148 0
-130 -157 0
-130 -166 0
-130 -174 0
-139 -148 0
-139 -157 0
-139 -166 0
-139 -174 0
-148 -157 0
-148 -166 0
-148 -174 0
-157 -166 0
-157 -174 0
-166 -174 0
104 113 122 131 140 149 158 167 175 0
-104 -113 0
-104 -122 0
-104 -131 0
-104 -140 0
-104 -149 0
-104 -158 0
-104 -167 0
-104 -175 0
-113 -122 0
-113 -131 0
-113 -140 0
-113 -149 0
-113 -158 0
-113 -167 0
-113 -175 0
-122 -131 0
-122 -140 0
-122 -149 0
-122 -158 0
-122 -167 0
-122 -175 0
-131 -140 0
-131 -149 0
-131 -158 0
-131 -167 0
-131 -175 0
-140 -149 0
-140 -158 0
-140 -167 0
-140 -175 0
-149 -158 0
-149 -167 0
-149 -175 0
-158 -167 0
-158 -175 0
-167 -175 0
105 114 123 132 141 150 159 168 176 0
-105 -114 0
-105 -123 0
-105 -132 0
-105 -141 0
-105 -150 0
-105 -159 0
-105 -168 0
-105 -176 0
-114 -123 0
-114 -132 0
-114 -141 0
-114 -150 0
-114 -159 0
-114 -168 0
-114 -176 0
-123 -132 0
-123 -141 0
-123 -150 0
-123 -159 0
-123 -168 0
-123 -176 0
-132 -141 0
-132 -150 0
-132 -159 0
-132 -168 0
-132 -176 0
-141 -150 0
-141 -159 0
-141 -168 0
-141 -176 0
-150 -159 0
-150 -168 0
-150 -176 0
-159 -168 0
-159 -176 0
-168 -176 0
106 115 124 133 142 151 160 169 177 0
-106 -115 0
-106 -124 0
-106 -133 0
-106 -142 0
-106 -151 0
-106 -160 0
-106 -169 0
-106 -177 0
-115 -124 0
-115 -133 0
-115 -142 0
-115 -151 0
-115 -160 0
-115 -169 0
-115 -177 0
-124 -133 0
-124 -142 0
-124 -151 0
-124 -160 0
-124 -169 0
-124 -177 0
-133 -142 0
-133 -151 0
-133 -160 0
-133 -169 0
-133 -177 0
-142 -151 0
-142 -160 0
-142 -169 0
-142 -177 0
-151 -160 0
-151 -169 0
-151 -177 0
-160 -169 0
-160 -177 0
-169 -177 0
107 116 125 134 143 152 161 170 178 0
-107 -116 0
-107 -125 0
-107 -134 0
-107 -143 0
-107 -152 0
-107 -161 0
-107 -170 0
-107 -178 0
-116 -125 0
-116 -134 0
-116 -143 0
-116 -152 0
-116 -161 0
-116 -170 0
-116 -178 0
-125 -134 0
-125 -143 0
-125 -152 0
-125 -161 0
-125 -170 0
-125 -178 0
-134 -143 0
-134 -152 0
-134 -161 0
-134 -170 0
-134 -178 0
-143 -152 0
-143 -161 0
-143 -170 0
-143 -178 0
-152 -161 0
-152 -170 0
-152 -178 0
-161 -170 0
-161 -178 0
-170 -178 0
179 188 197 206 214 223 232 241 250 0
-179 -188 0
-179 -197 0
-179 -206 0
-179 -214 0
-179 -223 0
-179 -232 0
-179 -241 0
-179 -250 0
-188 -197 0
-188 -206 0
-188 -214 0
-188 -223 0
-188 -232 0
-188 -241 0
-188 -250 0
-197 -206 0
-197 -214 0
-197 -223 0
-197 -232 0
-197 -241 0
-197 -250 0
-206 -214 0
-206 -223 0
-206 -232 0
-206 -241 0
-206 -250 0
-214 -223 0
-214 -232 0
-214 -241 0
-214 -250 0
-223 -232 0
-223 -241 0
-223 -250 0
-232 -241 0
-232 -250 0
-241 -250 0
180 189 198 207 215 224 233 242 251 0
-180 -189 0
-180 -198 0
-180 -207 0
-180 -215 0
-180 -224 0
-180 -233 0
-180 -242 0
-180 -251 0
-189 -198 0
-189 -207 0
-189 -215 0
-189 -224 0
-189 -233 0
-189 -242 0
-189 -251 0
-198 -207 0
-198 -215 0
-198 -224 0
-198 -233 0
-198 -242 0
-198 -251 0
-207 -215 0
-207 -224 0
-207 -233 0
-207 -242 0
-207 -251 0
-215 -224 0
-215 -233 0
-215 -242 0
-215 -251 0
-224 -233 0
-224 -242 0
-224 -251 0
-233 -242 0
-233 -251 0
-242 -251 0
181 190 199 208 216 225 234 243 252 0
-181 -190 0
-181 -199 0
-181 -208 0
-181 -216 0
-181 -225 0
-181 -234 0
-181 -243 0
-181 -252 0
-190 -199 0
-190 -208 0
-190 -216 0
-190 -225 0
-190 -234 0
-190 -243 0
-190 -252 0
-199 -208 0
-199 -216 0
-199 -225 0
-199 -234 0
-199 -243 0
-199 -252 0
-208 -216 0
-208 -225 0
-208 -234 0
-208 -243 0
-208 -252 0
-216 -225 0
-216 -234 0
-216 -243 0
-216 -252 0
-225 -234 0
-225 -243 0
-225 -252 0
-234 -243 0
-234 -252 0
-243 -252 0
182 191 200 209 217 226 235 244 253 0
-182 -191 0
-182 -200 0
-182 -209 0
-182 -217 0
-182 -226 0
-182 -235 0
-182 -244 0
-182 -253 0
-191 -200 0
-191 -209 0
-191 -217 0
-191 -226 0
-191 -235 0
-191 -244 0
-191 -253 0
-200 -209 0
-200 -217 0
-200 -226 0
-200 -235 0
-200 -244 0
-200 -253 0
-209 -217 0
-209 -226 0
-209 -235 0
-209 -244 0
-209 -253 0
-217 -226 0
-217 -235 0
-217 -244 0
-217 -253 0
-226 -235 0
-226 -244 0
-226 -253 0
-235 -244 0
-235 -253 0
-244 -253 0
183 192 201 210 218 227 236 245 254 0
-183 -192 0
-183 -201 0
-183 -210 0
-183 -218 0
-183 -227 0
-183 -236 0
-183 -245 0
-183 -254 0
-192 -201 0
-192 -210 0
-192 -218 0
-192 -227 0
-192 -236 0
-192 -245 0
-192 -254 0
-201 -210 0
-201 -218 0
-201 -227 0
-201 -236 0
-201 -245 0
-201 -254 0
-210 -218 0
-210 -227 0
-210 -236 0
-210 -245 0
-210 -254 0
-218 -227 0
-218 -236 0
-218 -245 0
-218 -254 0
-227 -236 0
-227 -245 0
-227 -254 0
-236 -245 0
-236 -254 0
-245 -254 0
184 193 202 211 219 228 237 246 9 0
-184 -193 0
-184 -202 0
-184 -211 0
-184 -219 0
-184 -228 0
-184 -237 0
-184 -246 0
-184 -9 0
-193 -202 0
-193 -211 0
-193 -219 0
-193 -228 0
-193 -237 0
-193 -246 0
-193 -9 0
-202 -211 0
-202 -219 0
-202 -228 0
-202 -237 0
-202 -246 0
-202 -9 0
-211 -219 0
-211 -228 0
-211 -237 0
-211 -246 0
-211 -9 0
-219 -228 0
-219 -237 0
-219 -246 0
-219 -9 0
-228 -237 0
-228 -246 0
-228 -9 0
-237 -246 0
-237 -9 0
-246 -9 0
185 194 203 8 220 229 238 247 255 0
-185 -194 0
-185 -203 0
-185 -8 0
-185 -220 0
-185 -229 0
-185 -238 0
-185 -247 0
-185 -255 0
-194 -203 0
-194 -8 0
-194 -220 0
-194 -229 0
-194 -238 0
-194 -247 0
-194 -255 0
-203 -8 0
-203 -220 0
-203 -229 0
-203 -238 0
-203 -247 0
-203 -255 0
-8 -220 0
-8 -229 0
-8 -238 0
-8 -247 0
-8 -255 0
-220 -229 0
-220 -238 0
-220 -247 0
-220 -255 0
-229 -238 0
-229 -247 0
-229 -255 0
-238 -247 0
-238 -255 0
-247 -255 0
186 195 204 212 221 230 239 248 256 0
-186 -195 0
-186 -204 0
-186 -212 0
-186 -221 0
-186 -230 0
-186 -239 0
-186 -248 0
-186 -256 0
-195 -204 0
-195 -212 0
-195 -221 0
-195 -230 0
-195 -239 0
-195 -248 0
-195 -256 0
-204 -212 0
-204 -221 0
-204 -230 0
-204 -239 0
-204 -248 0
-204 -256 0
-212 -221 0
-212 -230 0
-212 -239 0
-212 -248 0
-212 -256 0
-221 -230 0
-221 -239 0
-221 -248 0
-221 -256 0
-230 -239 0
-230 -248 0
-230 -256 0
-239 -248 0
-239 -256 0
-248 -256 0
187 196 205 213 222 231 240 249 257 0
-187 -196 0
-187 -205 0
-187 -213 0
-187 -222 0
-187 -231 0
-187 -240 0
-187 -249 0
-187 -257 0
-196 -205 0
-196 -213 0
-196 -222 0
-196 -231 0
-196 -240 0
-196 -249 0
-196 -257 0
-205 -213 0
-205 -222 0
-205 -231 0
-205 -240 0
-205 -249 0
-205 -257 0
-213 -222 0
-213 -231 0
-213 -240 0
-213 -249 0
-213 -257 0
-222 -231 0
-222 -240 0
-222 -249 0
-222 -257 0
-231 -240 0
-231 -249 0
-231 -257 0
-240 -249 0
-240 -257 0
-249 -257 0
258 266 275 11 292 301 310 318 326 0
-258 -266 0
-258 -275 0
-258 -11 0
-258 -292 0
-258 -301 0
-258 -310 0
-258 -318 0
-258 -326 0
-266 -275 0
-266 -11 0
-266 -292 0
-266 -301 0
-266 -310 0
-266 -318 0
-266 -326 0
-275 -11 0
-275 -292 0
-275 -301 0
-275 -310 0
-275 -318 0
-275 -326 0
-11 -292 0
-11 -301 0
-11 -310 0
-11 -318 0
-11 -326 0
-292 -301 0
-292 -310 0
-292 -318 0
-292 -326 0
-301 -310 0
-301 -318 0
-301 -326 0
-310 -318 0
-310 -326 0
-318 -326 0
259 267 276 284 293 302 311 319 327 0
-259 -267 0
-259 -276 0
-259 -284 0
-259 -293 0
-259 -302 0
-259 -311 0
-259 -319 0
-259 -327 0
-267 -276 0
-267 -284 0
-267 -293 0
-267 -302 0
-267 -311 0
-267 -319 0
-267 -327 0
-276 -284 0
-276 -293 0
-276 -302 0
-276 -311 0
-276 -319 0
-276 -327 0
-284 -293 0
-284 -302 0
-284 -311 0
-284 -319 0
-284 -327 0
-293 -302 0
-293 -311 0
-293 -319 0
-293 -327 0
-302 -311 0
-302 -319 0
-302 -327 0
-311 -319 0
-311 -327 0
-319 -327 0
10 268 277 285 294 303 312 320 328 0
-10 -268 0
-10 -277 0
-10 -285 0
-10 -294 0
-10 -303 0
-10 -312 0
-10 -320 0
-10 -328 0
-268 -277 0
-268 -285 0
-268 -294 0
-268 -303 0
-268 -312 0
-268 -320 0
-268 -328 0
-277 -285 0
-277 -294 0
-277 -303 0
-277 -312 0
-277 -320 0
-277 -328 0
-285 -294 0
-285 -303 0
-285 -312 0
-285 -320 0
-285 -328 0
-294 -303 0
-294 -312 0
-294 -320 0
-294 -328 0
-303 -312 0
-303 -320 0
-303 -328 0
-312 -320 0
-312 -328 0
-320 -328 0
260 269 278 286 295 304 313 321 329 0
-260 -269 0
-260 -278 0
-260 -286 0
-260 -295 0
-260 -304 0
-260 -313 0
-260 -321 0
-260 -329 0
-269 -278 0
-269 -286 0
-269 -295 0
-269 -304 0
-269 -313 0
-269 -321 0
-269 -329 0
-278 -286 0
-278 -295 0
-278 -304 0
-278 -313 0
-278 -321 0
-278 -329 0
-286 -295 0
-286 -304 0
-286 -313 0
-286 -321 0
-286 -329 0
-295 -304 0
-295 -313 0
-295 -321 0
-295 -329 0
-304 -313 0
-304 -321 0
-304 -329 0
-313 -321 0
-313 -329 0
-321 -329 0
261 270 279 287 296 305 314 322 330 0
-261 -270 0
-261 -279 0
-261 -287 0
-261 -296 0
-261 -305 0
-261 -314 0
-261 -322 0
-261 -330 0
-270 -279 0
-270 -287 0
-270 -296 0
-270 -305 0
-270 -314 0
-270 -322 0
-270 -330 0
-279 -287 0
-279 -296 0
-279 -305 0
-279 -314 0
-279 -322 0
-279 -330 0
-287 -296 0
-287 -305 0
-287 -314 0
-287 -322 0
-287 -330 0
-296 -305 0
-296 -314 0
-296 -322 0
-296 -330 0
-305 -314 0
-305 -322 0
-305 -330 0
-314 -322 0
-314 -330 0
-322 -330 0
262 271 280 288 297 306 315 323 331 0
-262 -271 0
-262 -280 0
-262 -288 0
-262 -297 0
-262 -306 0
-262 -315 0
-262 -323 0
-262 -331 0
-271 -280 0
-271 -288 0
-271 -297 0
-271 -306 0
-271 -315 0
-271 -323 0
-271 -331 0
-280 -288 0
-280 -297 0
-280 -306 0
-280 -315 0
-280 -323 0
-280 -331 0
-288 -297 0
-288 -306 0
-288 -315 0
-288 -323 0
-288 -331 0
-297 -306 0
-297 -315 0
-297 -323 0
-297 -331 0
-306 -315 0
-306 -323 0
-306 -331 0
-315 -323 0
-315 -331 0
-323 -331 0
263 272 281 289 298 307 316 13 332 0
-263 -272 0
-263 -281 0
-263 -289 0
-263 -298 0
-263 -307 0
-263 -316 0
-263 -13 0
-263 -332 0
-272 -281 0
-272 -289 0
-272 -298 0
-272 -307 0
-272 -316 0
-272 -13 0
-272 -332 0
-281 -289 0
-281 -298 0
-281 -307 0
-281 -316 0
-281 -13 0
-281 -332 0
-289 -298 0
-289 -307 0
-289 -316 0
-289 -13 0
-289 -332 0
-298 -307 0
-298 -316 0
-298 -13 0
-298 -332 0
-307 -316 0
-307 -13 0
-307 -332 0
-316 -13 0
-316 -332 0
-13 -332 0
264 273 282 290 299 308 12 324 333 0
-264 -273 0
-264 -282 0
-264 -290 0
-264 -299 0
-264 -308 0
-264 -12 0
-264 -324 0
-264 -333 0
-273 -282 0
-273 -290 0
-273 -299 0
-273 -308 0
-273 -12 0
-273 -324 0
-273 -333 0
-282 -290 0
-282 -299 0
-282 -308 0
-282 -12 0
-282 -324 0
-282 -333 0
-290 -299 0
-290 -308 0
-290 -12 0
-290 -324 0
-290 -333 0
-299 -308 0
-299 -12 0
-299 -324 0
-299 -333 0
-308 -12 0
-308 -324 0
-308 -333 0
-12 -324 0
-12 -333 0
-324 -333 0
265 274 283 291 300 309 317 325 334 0
-265 -274 0
-265 -283 0
-265 -291 0
-265 -300 0
-265 -309 0
-265 -317 0
-265 -325 0
-265 -334 0
-274 -283 0
-274 -291 0
-274 -300 0
-274 -309 0
-274 -317 0
-274 -325 0
-274 -334 0
-283 -291 0
-283 -300 0
-283 -309 0
-283 -317 0
-283 -325 0
-283 -334 0
-291 -300 0
-291 -309 0
-291 -317 0
-291 -325 0
-291 -334 0
-300 -309 0
-300 -317 0
-300 -325 0
-300 -334 0
-309 -317 0
-309 -325 0
-309 -334 0
-317 -325 0
-317 -334 0
-325 -334 0
335 344 353 362 371 380 389 397 406 0
-335 -344 0
-335 -353 0
-335 -362 0
-335 -371 0
-335 -380 0
-335 -389 0
-335 -397 0
-335 -406 0
-344 -353 0
-344 -362 0
-344 -371 0
-344 -380 0
-344 -389 0
-344 -397 0
-344 -406 0
-353 -362 0
-353 -371 0
-353 -380 0
-353 -389 0
-353 -397 0
-353 -406 0
-362 -371 0
-362 -380 0
-362 -389 0
-362 -397 0
-362 -406 0
-371 -380 0
-371 -389 0
-371 -397 0
-371 -406 0
-380 -389 0
-380 -397 0
-380 -406 0
-389 -397 0
-389 -406 0
-397 -406 0
336 345 354 363 372 381 390 398 407 0
-336 -345 0
-336 -354 0
-336 -363 0
-336 -372 0
-336 -381 0
-336 -390 0
-336 -398 0
-336 -407 0
-345 -354 0
-345 -363 0
-345 -372 0
-345 -381 0
-345 -390 0
-345 -398 0
-345 -407 0
-354 -363 0
-354 -372 0
-354 -381 0
-354 -390 0
-354 -398 0
-354 -407 0
-363 -372 0
-363 -381 0
-363 -390 0
-363 -398 0
-363 -407 0
-372 -381 0
-372 -390 0
-372 -398 0
-372 -407 0
-381 -390 0
-381 -398 0
-381 -407 0
-390 -398 0
-390 -407 0
-398 -407 0
337 346 355 364 373 382 391 399 408 0
-337 -346 0
-337 -355 0
-337 -364 0
-337 -373 0
-337 -382 0
-337 -391 0
-337 -399 0
-337 -408 0
-346 -355 0
-346 -364 0
-346 -373 0
-346 -382 0
-346 -391 0
-346 -399 0
-346 -408 0
-355 -364 0
-355 -373 0
-355 -382 0
-355 -391 0
-355 -399 0
-355 -408 0
-364 -373 0
-364 -382 0
-364 -391 0
-364 -399 0
-364 -408 0
-373 -382 0
-373 -391 0
-373 -399 0
-373 -408 0
-382 -391 0
-382 -399 0
-382 -408 0
-391 -399 0
-391 -408 0
-399 -408 0
338 347 356 365 374 383 392 400 409 0
-338 -347 0
-338 -356 0
-338 -365 0
-338 -374 0
-338 -383 0
-338 -392 0
-338 -400 0
-338 -409 0
-347 -356 0
-347 -365 0
-347 -374 0
-347 -383 0
-347 -392 0
-347 -400 0
-347 -409 0
-356 -365 0
-356 -374 0
-356 -383 0
-356 -392 0
-356 -400 0
-356 -409 0
-365 -374 0
-365 -383 0
-365 -392 0
-365 -400 0
-365 -409 0
-374 -383 0
-374 -392 0
-374 -400 0
-374 -409 0
-383 -392 0
-383 -400 0
-383 -409 0
-392 -400 0
-392 -409 0
-400 -409 0
339 348 357 366 375 384 393 401 410 0
-339 -348 0
-339 -357 0
-339 -366 0
-339 -375 0
-339 -384 0
-339 -393 0
-339 -401 0
-339 -410 0
-348 -357 0
-348 -366 0
-348 -375 0
-348 -384 0
-348 -393 0
-348 -401 0
-348 -410 0
-357 -366 0
-357 -375 0
-357 -384 0
-357 -393 0
-357 -401 0
-357 -410 0
-366 -375 0
-366 -384 0
-366 -393 0
-366 -401 0
-366 -410 0
-375 -384 0
-375 -393 0
-375 -401 0
-375 -410 0
-384 -393 0
-384 -401 0
-384 -410 0
-393 -401 0
-393 -410 0
-401 -410 0
340 349 358 367 376 385 14 402 411 0
-340 -349 0
-340 -358 0
-340 -367 0
-340 -376 0
-340 -385 0
-340 -14 0
-340 -402 0
-340 -411 0
-349 -358 0
-349 -367 0
-349 -376 0
-349 -385 0
-349 -14 0
-349 -402 0
-349 -411 0
-358 -367 0
-358 -376 0
-358 -385 0
-358 -14 0
-358 -402 0
-358 -411 0
-367 -376 0
-367 -385 0
-367 -14 0
-367 -402 0
-367 -411 0
-376 -385 0
-376 -14 0
-376 -402 0
-376 -411 0
-385 -14 0
-385 -402 0
-385 -411 0
-14 -402 0
-14 -411 0
-402 -411 0
341 350 359 368 377 386 394 403 412 0
-341 -350 0
-341 -359 0
-341 -368 0
-341 -377 0
-341 -386 0
-341 -394 0
-341 -403 0
-341 -412 0
-350 -359 0
-350 -368 0
-350 -377 0
-350 -386 0
-350 -394 0
-350 -403 0
-350 -412 0
-359 -368 0
-359 -377 0
-359 -386 0
-359 -394 0
-359 -403 0
-359 -412 0
-368 -377 0
-368 -386 0
-368 -394 0
-368 -403 0
-368 -412 0
-377 -386 0
-377 -394 0
-377 -403 0
-377 -412 0
-386 -394 0
-386 -403 0
-386 -412 0
-394 -403 0
-394 -412 0
-403 -412 0
342 351 360 369 378 387 395 404 413 0
-342 -351 0
-342 -360 0
-342 -369 0
-342 -378 0
-342 -387 0
-342 -395 0
-342 -404 0
-342 -413 0
-351 -360 0
-351 -369 0
-351 -378 0
-351 -387 0
-351 -395 0
-351 -404 0
-351 -413 0
-360 -369 0
-360 -378 0
-360 -387 0
-360 -395 0
-360 -404 0
-360 -413 0
-369 -378 0
-369 -387 0
-369 -395 0
-369 -404 0
-369 -413 0
-378 -387 0
-378 -395 0
-378 -404 0
-378 -413 0
-387 -395 0
-387 -404 0
-387 -413 0
-395 -404 0
-395 -413 0
-404 -413 0
343 352 361 370 379 388 396 405 414 0
-343 -352 0
-343 -361 0
-343 -370 0
-343 -379 0
-343 -388 0
-343 -396 0
-343 -405 0
-343 -414 0
-352 -361 0
-352 -370 0
-352 -379 0
-352 -388 0
-352 -396 0
-352 -405 0
-352 -414 0
-361 -370 0
-361 -379 0
-361 -388 0
-361 -396 0
-361 -405 0
-361 -414 0
-370 -379 0
-370 -388 0
-370 -396 0
-370 -405 0
-370 -414 0
-379 -388 0
-379 -396 0
-379 -405 0
-379 -414 0
-388 -396 0
-388 -405 0
-388 -414 0
-396 -405 0
-396 -414 0
-405 -414 0
415 424 15 441 450 458 467 476 485 0
-415 -424 0
-415 -15 0
-415 -441 0
-415 -450 0
-415 -458 0
-415 -467 0
-415 -476 0
-415 -485 0
-424 -15 0
-424 -441 0
-424 -450 0
-424 -458 0
-424 -467 0
-424 -476 0
-424 -485 0
-15 -441 0
-15 -450 0
-15 -458 0
-15 -467 0
-15 -476 0
-15 -485 0
-441 -450 0
-441 -458 0
-441 -467 0
-441 -476 0
-441 -485 0
-450 -458 0
-450 -467 0
-450 -476 0
-450 -485 0
-458 -467 0
-458 -476 0
-458 -485 0
-467 -476 0
-467 -485 0
-476 -485 0
416 425 433 442 16 459 468 477 486 0
-416 -425 0
-416 -433 0
-416 -442 0
-416 -16 0
-416 -459 0
-416 -468 0
-416 -477 0
-416 -486 0
-425 -433 0
-425 -442 0
-425 -16 0
-425 -459 0
-425 -468 0
-425 -477 0
-425 -486 0
-433 -442 0
-433 -16 0
-433 -459 0
-433 -468 0
-433 -477 0
-433 -486 0
-442 -16 0
-442 -459 0
-442 -468 0
-442 -477 0
-442 -486 0
-16 -459 0
-16 -468 0
-16 -477 0
-16 -486 0
-459 -468 0
-459 -477 0
-459 -486 0
-468 -477 0
-468 -486 0
-477 -486 0
417 426 434 443 451 460 469 478 487 0
-417 -426 0
-417 -434 0
-417 -443 0
-417 -451 0
-417 -460 0
-417 -469 0
-417 -478 0
-417 -487 0
-426 -434 0
-426 -443 0
-426 -451 0
-426 -460 0
-426 -469 0
-426 -478 0
-426 -487 0
-434 -443 0
-434 -451 0
-434 -460 0
-434 -469 0
-434 -478 0
-434 -487 0
-443 -451 0
-443 -460 0
-443 -469 0
-443 -478 0
-443 -487 0
-451 -460 0
-451 -469 0
-451 -478 0
-451 -487 0
-460 -469 0
-460 -478 0
-460 -487 0
-469 -478 0
-469 -487 0
-478 -487 0
418 427 435 444 452 461 470 479 488 0
-418 -427 0
-418 -435 0
-418 -444 0
-418 -452 0
-418 -461 0
-418 -470 0
-418 -479 0
-418 -488 0
-427 -435 0
-427 -444 0
-427 -452 0
-427 -461 0
-427 -470 0
-427 -479 0
-427 -488 0
-435 -444 0
-435 -452 0
-435 -461 0
-435 -470 0
-435 -479 0
-435 -488 0
-444 -452 0
-444 -461 0
-444 -470 0
-444 -479 0
-444 -488 0
-452 -461 0
-452 -470 0
-452 -479 0
-452 -488 0
-461 -470 0
-461 -479 0
-461 -488 0
-470 -479 0
-470 -488 0
-479 -488 0
419 428 436 445 453 462 471 480 489 0
-419 -428 0
-419 -436 0
-419 -445 0
-419 -453 0
-419 -462 0
-419 -471 0
-419 -480 0
-419 -489 0
-428 -436 0
-428 -445 0
-428 -453 0
-428 -462 0
-428 -471 0
-428 -480 0
-428 -489 0
-436 -445 0
-436 -453 0
-436 -462 0
-436 -471 0
-436 -480 0
-436 -489 0
-445 -453 0
-445 -462 0
-445 -471 0
-445 -480 0
-445 -489 0
-453 -462 0
-453 -471 0
-453 -480 0
-453 -489 0
-462 -471 0
-462 -480 0
-462 -489 0
-471 -480 0
-471 -489 0
-480 -489 0
420 429 437 446 454 463 472 481 490 0
-420 -429 0
-420 -437 0
-420 -446 0
-420 -454 0
-420 -463 0
-420 -472 0
-420 -481 0
-420 -490 0
-429 -437 0
-429 -446 0
-429 -454 0
-429 -463 0
-429 -472 0
-429 -481 0
-429 -490 0
-437 -446 0
-437 -454 0
-437 -463 0
-437 -472 0
-437 -481 0
-437 -490 0
-446 -454 0
-446 -463 0
-446 -472 0
-446 -481 0
-446 -490 0
-454 -463 0
-454 -472 0
-454 -481 0
-454 -490 0
-463 -472 0
-463 -481 0
-463 -490 0
-472 -481 0
-472 -490 0
-481 -490 0
421 430 438 447 455 464 473 482 491 0
-421 -430 0
-421 -438 0
-421 -447 0
-421 -455 0
-421 -464 0
-421 -473 0
-421 -482 0
-421 -491 0
-430 -438 0
-430 -447 0
-430 -455 0
-430 -464 0
-430 -473 0
-430 -482 0
-430 -491 0
-438 -447 0
-438 -455 0
-438 -464 0
-438 -473 0
-438 -482 0
-438 -491 0
-447 -455 0
-447 -464 0
-447 -473 0
-447 -482 0
-447 -491 0
-455 -464 0
-455 -473 0
-455 -482 0
-455 -491 0
-464 -473 0
-464 -482 0
-464 -491 0
-473 -482 0
-473 -491 0
-482 -491 0
422 431 439 448 456 465 474 483 492 0
-422 -431 0
-422 -439 0
-422 -448 0
-422 -456 0
-422 -465 0
-422 -474 0
-422 -483 0
-422 -492 0
-431 -439 0
-431 -448 0
-431 -456 0
-431 -465 0
-431 -474 0
-431 -483 0
-431 -492 0
-439 -448 0
-439 -456 0
-439 -465 0
-439 -474 0
-439 -483 0
-439 -492 0
-448 -456 0
-448 -465 0
-448 -474 0
-448 -483 0
-448 -492 0
-456 -465 0
-456 -474 0
-456 -483 0
-456 -492 0
-465 -474 0
-465 -483 0
-465 -492 0
-474 -483 0
-474 -492 0
-483 -492 0
423 432 440 449 457 466 475 484 493 0
-423 -432 0
-423 -440 0
-423 -449 0
-423 -457 0
-423 -466 0
-423 -475 0
-423 -484 0
-423 -493 0
-432 -440 0
-432 -449 0
-432 -457 0
-432 -466 0
-432 -475 0
-432 -484 0
-432 -493 0
-440 -449 0
-440 -457 0
-440 -466 0
-440 -475 0
-440 -484 0
-440 -493 0
-449 -457 0
-449 -466 0
-449 -475 0
-449 -484 0
-449 -493 0
-457 -466 0
-457 -475 0
-457 -484 0
-457 -493 0
-466 -475 0
-466 -484 0
-466 -493 0
-475 -484 0
-475 -493 0
-484 -493 0
494 503 512 521 530 539 548 557 566 0
-494 -503 0
-494 -512 0
-494 -521 0
-494 -530 0
-494 -539 0
-494 -548 0
-494 -557 0
-494 -566 0
-503 -512 0
-503 -521 0
-503 -530 0
-503 -539 0
-503 -548 0
-503 -557 0
-503 -566 0
-512 -521 0
-512 -530 0
-512 -539 0
-512 -548 0
-512 -557 0
-512 -566 0
-521 -530 0
-521 -539 0
-521 -548 0
-521 -557 0
-521 -566 0
-530 -539 0
-530 -548 0
-530 -557 0
-530 -566 0
-539 -548 0
-539 -557 0
-539 -566 0
-548 -557 0
-548 -566 0
-557 -566 0
495 504 513 522 531 540 549 558 567 0
-495 -504 0
-495 -513 0
-495 -522 0
-495 -531 0
-495 -540 0
-495 -549 0
-495 -558 0
-495 -567 0
-504 -513 0
-504 -522 0
-504 -531 0
-504 -540 0
-504 -549 0
-504 -558 0
-504 -567 0
-513 -522 0
-513 -531 0
-513 -540 0
-513 -549 0
-513 -558 0
-513 -567 0
-522 -531 0
-522 -540 0
-522 -549 0
-522 -558 0
-522 -567 0
-531 -540 0
-531 -549 0
-531 -558 0
-531 -567 0
-540 -549 0
-540 -558 0
-540 -567 0
-549 -558 0
-549 -567 0
-558 -567 0
496 505 514 523 532 541 550 559 568 0
-496 -505 0
-496 -514 0
-496 -523 0
-496 -532 0
-496 -541 0
-496 -550 0
-496 -559 0
-496 -568 0
-505 -514 0
-505 -523 0
-505 -532 0
-505 -541 0
-505 -550 0
-505 -559 0
-505 -568 0
-514 -523 0
-514 -532 0
-514 -541 0
-514 -550 0
-514 -559 0
-514 -568 0
-523 -532 0
-523 -541 0
-523 -550 0
-523 -559 0
-523 -568 0
-532 -541 0
-532 -550 0
-532 -559 0
-532 -568 0
-541 -550 0
-541 -559 0
-541 -568 0
-550 -559 0
-550 -568 0
-559 -568 0
497 506 515 524 533 542 551 560 569 0
-497 -506 0
-497 -515 0
-497 -524 0
-497 -533 0
-497 -542 0
-497 -551 0
-497 -560 0
-497 -569 0
-506 -515 0
-506 -524 0
-506 -533 0
-506 -542 0
-506 -551 0
-506 -560 0
-506 -569 0
-515 -524 0
-515 -533 0
-515 -542 0
-515 -551 0
-515 -560 0
-515 -569 0
-524 -533 0
-524 -542 0
-524 -551 0
-524 -560 0
-524 -569 0
-533 -542 0
-533 -551 0
-533 -560 0
-533 -569 0
-542 -551 0
-542 -560 0
-542 -569 0
-551 -560 0
-551 -569 0
-560 -569 0
498 507 516 525 534 543 552 561 17 0
-498 -507 0
-498 -516 0
-498 -525 0
-498 -534 0
-498 -543 0
-498 -552 0
-498 -561 0
-498 -17 0
-507 -516 0
-507 -525 0
-507 -534 0
-507 -543 0
-507 -552 0
-507 -561 0
-507 -17 0
-516 -525 0
-516 -534 0
-516 -543 0
-516 -552 0
-516 -561 0
-516 -17 0
-525 -534 0
-525 -543 0
-525 -552 0
-525 -561 0
-525 -17 0
-534 -543 0
-534 -552 0
-534 -561 0
-534 -17 0
-543 -552 0
-543 -561 0
-543 -17 0
-552 -561 0
-552 -17 0
-561 -17 0
499 508 517 526 535 544 553 562 570 0
-499 -508 0
-499 -517 0
-499 -526 0
-499 -535 0
-499 -544 0
-499 -553 0
-499 -562 0
-499 -570 0
-508 -517 0
-508 -526 0
-508 -535 0
-508 -544 0
-508 -553 0
-508 -562 0
-508 -570 0
-517 -526 0
-517 -535 0
-517 -544 0
-517 -553 0
-517 -562 0
-517 -570 0
-526 -535 0
-526 -544 0
-526 -553 0
-526 -562 0
-526 -570 0
-535 -544 0
-535 -553 0
-535 -562 0
-535 -570 0
-544 -553 0
-544 -562 0
-544 -570 0
-553 -562 0
-553 -570 0
-562 -570 0
500 509 518 527 536 545 554 563 571 0
-500 -509 0
-500 -518 0
-500 -527 0
-500 -536 0
-500 -545 0
-500 -554 0
-500 -563 0
-500 -571 0
-509 -518 0
-509 -527 0
-509 -536 0
-509 -545 0
-509 -554 0
-509 -563 0
-509 -571 0
-518 -527 0
-518 -536 0
-518 -545 0
-518 -554 0
-518 -563 0
-518 -571 0
-527 -536 0
-527 -545 0
-527 -554 0
-527 -563 0
-527 -571 0
-536 -545 0
-536 -554 0
-536 -563 0
-536 -571 0
-545 -554 0
-545 -563 0
-545 -571 0
-554 -563 0
-554 -571 0
-563 -571 0
501 510 519 528 537 546 555 564 572 0
-501 -510 0
-501 -519 0
-501 -528 0
-501 -537 0
-501 -546 0
-501 -555 0
-501 -564 0
-501 -572 0
-510 -519 0
-510 -528 0
-510 -537 0
-510 -546 0
-510 -555 0
-510 -564 0
-510 -572 0
-519 -528 0
-519 -537 0
-519 -546 0
-519 -555 0
-519 -564 0
-519 -572 0
-528 -537 0
-528 -546 0
-528 -555 0
-528 -564 0
-528 -572 0
-537 -546 0
-537 -555 0
-537 -564 0
-537 -572 0
-546 -555 0
-546 -564 0
-546 -572 0
-555 -564 0
-555 -572 0
-564 -572 0
502 511 520 529 538 547 556 565 573 0
-502 -511 0
-502 -520 0
-502 -529 0
-502 -538 0
-502 -547 0
-502 -556 0
-502 -565 0
-502 -573 0
-511 -520 0
-511 -529 0
-511 -538 0
-511 -547 0
-511 -556 0
-511 -565 0
-511 -573 0
-520 -529 0
-520 -538 0
-520 -547 0
-520 -556 0
-520 -565 0
-520 -573 0
-529 -538 0
-529 -547 0
-529 -556 0
-529 -565 0
-529 -573 0
-538 -547 0
-538 -556 0
-538 -565 0
-538 -573 0
-547 -556 0
-547 -565 0
-547 -573 0
-556 -565 0
-556 -573 0
-565 -573 0
574 582 591 600 608 617 20 634 642 0
-574 -582 0
-574 -591 0
-574 -600 0
-574 -608 0
-574 -617 0
-574 -20 0
-574 -634 0
-574 -642 0
-582 -591 0
-582 -600 0
-582 -608 0
-582 -617 0
-582 -20 0
-582 -634 0
-582 -642 0
-591 -600 0
-591 -608 0
-591 -617 0
-591 -20 0
-591 -634 0
-591 -642 0
-600 -608 0
-600 -617 0
-600 -20 0
-600 -634 0
-600 -642 0
-608 -617 0
-608 -20 0
-608 -634 0
-608 -642 0
-617 -20 0
-617 -634 0
-617 -642 0
-20 -634 0
-20 -642 0
-634 -642 0
575 583 592 19 609 618 626 635 643 0
-575 -583 0
-575 -592 0
-575 -19 0
-575 -609 0
-575 -618 0
-575 -626 0
-575 -635 0
-575 -643 0
-583 -592 0
-583 -19 0
-583 -609 0
-583 -618 0
-583 -626 0
-583 -635 0
-583 -643 0
-592 -19 0
-592 -609 0
-592 -618 0
-592 -626 0
-592 -635 0
-592 -643 0
-19 -609 0
-19 -618 0
-19 -626 0
-19 -635 0
-19 -643 0
-609 -618 0
-609 -626 0
-609 -635 0
-609 -643 0
-618 -626 0
-618 -635 0
-618 -643 0
-626 -635 0
-626 -643 0
-635 -643 0
576 584 593 601 610 619 627 21 644 0
-576 -584 0
-576 -593 0
-576 -601 0
-576 -610 0
-576 -619 0
-576 -627 0
-576 -21 0
-576 -644 0
-584 -593 0
-584 -601 0
-584 -610 0
-584 -619 0
-584 -627 0
-584 -21 0
-584 -644 0
-593 -601 0
-593 -610 0
-593 -619 0
-593 -627 0
-593 -21 0
-593 -644 0
-601 -610 0
-601 -619 0
-601 -627 0
-601 -21 0
-601 -644 0
-610 -619 0
-610 -627 0
-610 -21 0
-610 -644 0
-619 -627 0
-619 -21 0
-619 -644 0
-627 -21 0
-627 -644 0
-21 -644 0
577 585 594 602 611 620 628 636 645 0
-577 -585 0
-577 -594 0
-577 -602 0
-577 -611 0
-577 -620 0
-577 -628 0
-577 -636 0
-577 -645 0
-585 -594 0
-585 -602 0
-585 -611 0
-585 -620 0
-585 -628 0
-585 -636 0
-585 -645 0
-594 -602 0
-594 -611 0
-594 -620 0
-594 -628 0
-594 -636 0
-594 -645 0
-602 -611 0
-602 -620 0
-602 -628 0
-602 -636 0
-602 -645 0
-611 -620 0
-611 -628 0
-611 -636 0
-611 -645 0
-620 -628 0
-620 -636 0
-620 -645 0
-628 -636 0
-628 -645 0
-636 -645 0
578 586 595 603 612 621 629 637 646 0
-578 -586 0
-578 -595 0
-578 -603 0
-578 -612 0
-578 -621 0
-578 -629 0
-578 -637 0
-578 -646 0
-586 -595 0
-586 -603 0
-586 -612 0
-586 -621 0
-586 -629 0
-586 -637 0
-586 -646 0
-595 -603 0
-595 -612 0
-595 -621 0
-595 -629 0
-595 -637 0
-595 -646 0
-603 -612 0
-603 -621 0
-603 -629 0
-603 -637 0
-603 -646 0
-612 -621 0
-612 -629 0
-612 -637 0
-612 -646 0
-621 -629 0
-621 -637 0
-621 -646 0
-629 -637 0
-629 -646 0
-637 -646 0
579 587 596 604 613 622 630 638 647 0
-579 -587 0
-579 -596 0
-579 -604 0
-579 -613 0
-579 -622 0
-579 -630 0
-579 -638 0
-579 -647 0
-587 -596 0
-587 -604 0
-587 -613 0
-587 -622 0
-587 -630 0
-587 -638 0
-587 -647 0
-596 -604 0
-596 -613 0
-596 -622 0
-596 -630 0
-596 -638 0
-596 -647 0
-604 -613 0
-604 -622 0
-604 -630 0
-604 -638 0
-604 -647 0
-613 -622 0
-613 -630 0
-613 -638 0
-613 -647 0
-622 -630 0
-622 -638 0
-622 -647 0
-630 -638 0
-630 -647 0
-638 -647 0
580 588 597 605 614 623 631 639 648 0
-580 -588 0
-580 -597 0
-580 -605 0
-580 -614 0
-580 -623 0
-580 -631 0
-580 -639 0
-580 -648 0
-588 -597 0
-588 -605 0
-588 -614 0
-588 -623 0
-588 -631 0
-588 -639 0
-588 -648 0
-597 -605 0
-597 -614 0
-597 -623 0
-597 -631 0
-597 -639 0
-597 -648 0
-605 -614 0
-605 -623 0
-605 -631 0
-605 -639 0
-605 -648 0
-614 -623 0
-614 -631 0
-614 -639 0
-614 -648 0
-623 -631 0
-623 -639 0
-623 -648 0
-631 -639 0
-631 -648 0
-639 -648 0
18 589 598 606 615 624 632 640 649 0
-18 -589 0
-18 -598 0
-18 -606 0
-18 -615 0
-18 -624 0
-18 -632 0
-18 -640 0
-18 -649 0
-589 -598 0
-589 -606 0
-589 -615 0
-589 -624 0
-589 -632 0
-589 -640 0
-589 -649 0
-598 -606 0
-598 -615 0
-598 -624 0
-598 -632 0
-598 -640 0
-598 -649 0
-606 -615 0
-606 -624 0
-606 -632 0
-606 -640 0
-606 -649 0
-615 -624 0
-615 -632 0
-615 -640 0
-615 -649 0
-624 -632 0
-624 -640 0
-624 -649 0
-632 -640 0
-632 -649 0
-640 -649 0
581 590 599 607 616 625 633 641 650 0
-581 -590 0
-581 -599 0
-581 -607 0
-581 -616 0
-581 -625 0
-581 -633 0
-581 -641 0
-581 -650 0
-590 -599 0
-590 -607 0
-590 -616 0
-590 -625 0
-590 -633 0
-590 -641 0
-590 -650 0
-599 -607 0
-599 -616 0
-599 -625 0
-599 -633 0
-599 -641 0
-599 -650 0
-607 -616 0
-607 -625 0
-607 -633 0
-607 -641 0
-607 -650 0
-616 -625 0
-616 -633 0
-616 -641 0
-616 -650 0
-625 -633 0
-625 -641 0
-625 -650 0
-633 -641 0
-633 -650 0
-641 -650 0
651 660 668 677 686 695 703 712 721 0
-651 -660 0
-651 -668 0
-651 -677 0
-651 -686 0
-651 -695 0
-651 -703 0
-651 -712 0
-651 -721 0
-660 -668 0
-660 -677 0
-660 -686 0
-660 -695 0
-660 -703 0
-660 -712 0
-660 -721 0
-668 -677 0
-668 -686 0
-668 -695 0
-668 -703 0
-668 -712 0
-668 -721 0
-677 -686 0
-677 -695 0
-677 -703 0
-677 -712 0
-677 -721 0
-686 -695 0
-686 -703 0
-686 -712 0
-686 -721 0
-695 -703 0
-695 -712 0
-695 -721 0
-703 -712 0
-703 -721 0
-712 -721 0
652 661 669 678 687 696 704 713 722 0
-652 -661 0
-652 -669 0
-652 -678 0
-652 -687 0
-652 -696 0
-652 -704 0
-652 -713 0
-652 -722 0
-661 -669 0
-661 -678 0
-661 -687 0
-661 -696 0
-661 -704 0
-661 -713 0
-661 -722 0
-669 -678 0
-669 -687 0
-669 -696 0
-669 -704 0
-669 -713 0
-669 -722 0
-678 -687 0
-678 -696 0
-678 -704 0
-678 -713 0
-678 -722 0
-687 -696 0
-687 -704 0
-687 -713 0
-687 -722 0
-696 -704 0
-696 -713 0
-696 -722 0
-704 -713 0
-704 -722 0
-713 -722 0
653 662 670 679 688 697 705 714 723 0
-653 -662 0
-653 -670 0
-653 -679 0
-653 -688 0
-653 -697 0
-653 -705 0
-653 -714 0
-653 -723 0
-662 -670 0
-662 -679 0
-662 -688 0
-662 -697 0
-662 -705 0
-662 -714 0
-662 -723 0
-670 -679 0
-670 -688 0
-670 -697 0
-670 -705 0
-670 -714 0
-670 -723 0
-679 -688 0
-679 -697 0
-679 -705 0
-679 -714 0
-679 -723 0
-688 -697 0
-688 -705 0
-688 -714 0
-688 -723 0
-697 -705 0
-697 -714 0
-697 -723 0
-705 -714 0
-705 -723 0
-714 -723 0
654 663 671 680 689 23 706 715 724 0
-654 -663 0
-654 -671 0
-654 -680 0
-654 -689 0
-654 -23 0
-654 -706 0
-654 -715 0
-654 -724 0
-663 -671 0
-663 -680 0
-663 -689 0
-663 -23 0
-663 -706 0
-663 -715 0
-663 -724 0
-671 -680 0
-671 -689 0
-671 -23 0
-671 -706 0
-671 -715 0
-671 -724 0
-680 -689 0
-680 -23 0
-680 -706 0
-680 -715 0
-680 -724 0
-689 -23 0
-689 -706 0
-689 -715 0
-689 -724 0
-23 -706 0
-23 -715 0
-23 -724 0
-706 -715 0
-706 -724 0
-715 -724 0
655 664 672 681 690 698 707 716 725 0
-655 -664 0
-655 -672 0
-655 -681 0
-655 -690 0
-655 -698 0
-655 -707 0
-655 -716 0
-655 -725 0
-664 -672 0
-664 -681 0
-664 -690 0
-664 -698 0
-664 -707 0
-664 -716 0
-664 -725 0
-672 -681 0
-672 -690 0
-672 -698 0
-672 -707 0
-672 -716 0
-672 -725 0
-681 -690 0
-681 -698 0
-681 -707 0
-681 -716 0
-681 -725 0
-690 -698 0
-690 -707 0
-690 -716 0
-690 -725 0
-698 -707 0
-698 -716 0
-698 -725 0
-707 -716 0
-707 -725 0
-716 -725 0
656 665 673 682 691 699 708 717 726 0
-656 -665 0
-656 -673 0
-656 -682 0
-656 -691 0
-656 -699 0
-656 -708 0
-656 -717 0
-656 -726 0
-665 -673 0
-665 -682 0
-665 -691 0
-665 -699 0
-665 -708 0
-665 -717 0
-665 -726 0
-673 -682 0
-673 -691 0
-673 -699 0
-673 -708 0
-673 -717 0
-673 -726 0
-682 -691 0
-682 -699 0
-682 -708 0
-682 -717 0
-682 -726 0
-691 -699 0
-691 -708 0
-691 -717 0
-691 -726 0
-699 -708 0
-699 -717 0
-699 -726 0
-708 -717 0
-708 -726 0
-717 -726 0
657 666 674 683 692 700 709 718 727 0
-657 -666 0
-657 -674 0
-657 -683 0
-657 -692 0
-657 -700 0
-657 -709 0
-657 -718 0
-657 -727 0
-666 -674 0
-666 -683 0
-666 -692 0
-666 -700 0
-666 -709 0
-666 -718 0
-666 -727 0
-674 -683 0
-674 -692 0
-674 -700 0
-674 -709 0
-674 -718 0
-674 -727 0
-683 -692 0
-683 -700 0
-683 -709 0
-683 -718 0
-683 -727 0
-692 -700 0
-692 -709 0
-692 -718 0
-692 -727 0
-700 -709 0
-700 -718 0
-700 -727 0
-709 -718 0
-709 -727 0
-718 -727 0
658 667 675 684 693 701 710 719 728 0
-658 -667 0
-658 -675 0
-658 -684 0
-658 -693 0
-658 -701 0
-658 -710 0
-658 -719 0
-658 -728 0
-667 -675 0
-667 -684 0
-667 -693 0
-667 -701 0
-667 -710 0
-667 -719 0
-667 -728 0
-675 -684 0
-675 -693 0
-675 -701 0
-675 -710 0
-675 -719 0
-675 -728 0
-684 -693 0
-684 -701 0
-684 -710 0
-684 -719 0
-684 -728 0
-693 -701 0
-693 -710 0
-693 -719 0
-693 -728 0
-701 -710 0
-701 -719 0
-701 -728 0
-710 -719 0
-710 -728 0
-719 -728 0
659 22 676 685 694 702 711 720 729 0
-659 -22 0
-659 -676 0
-659 -685 0
-659 -694 0
-659 -702 0
-659 -711 0
-659 -720 0
-659 -729 0
-22 -676 0
-22 -685 0
-22 -694 0
-22 -702 0
-22 -711 0
-22 -720 0
-22 -729 0
-676 -685 0
-676 -694 0
-676 -702 0
-676 -711 0
-676 -720 0
-676 -729 0
-685 -694 0
-685 -702 0
-685 -711 0
-685 -720 0
-685 -729 0
-694 -702 0
-694 -711 0
-694 -720 0
-694 -729 0
-702 -711 0
-702 -720 0
-702 -729 0
-711 -720 0
-711 -729 0
-720 -729 0
24 33 41 100 108 117 179 188 197 0
-24 -33 0
-24 -41 0
-24 -100 0
-24 -108 0
-24 -117 0
-24 -179 0
-24 -188 0
-24 -197 0
-33 -41 0
-33 -100 0
-33 -108 0
-33 -117 0
-33 -179 0
-33 -188 0
-33 -197 0
-41 -100 0
-41 -108 0
-41 -117 0
-41 -179 0
-41 -188 0
-41 -197 0
-100 -108 0
-100 -117 0
-100 -179 0
-100 -188 0
-100 -197 0
-108 -117 0
-108 -179 0
-108 -188 0
-108 -197 0
-117 -179 0
-117 -188 0
-117 -197 0
-179 -188 0
-179 -197 0
-188 -197 0
25 34 42 101 109 118 180 189 198 0
-25 -34 0
-25 -42 0
-25 -101 0
-25 -109 0
-25 -118 0
-25 -180 0
-25 -189 0
-25 -198 0
-34 -42 0
-34 -101 0
-34 -109 0
-34 -118 0
-34 -180 0
-34 -189 0
-34 -198 0
-42 -101 0
-42 -109 0
-42 -118 0
-42 -180 0
-42 -189 0
-42 -198 0
-101 -109 0
-101 -118 0
-101 -180 0
-101 -189 0
-101 -198 0
-109 -118 0
-109 -180 0
-109 -189 0
-109 -198 0
-118 -180 0
-118 -189 0
-118 -198 0
-180 -189 0
-180 -198 0
-189 -198 0
26 35 2 102 110 119 181 190 199 0
-26 -35 0
-26 -2 0
-26 -102 0
-26 -110 0
-26 -119 0
-26 -181 0
-26 -190 0
-26 -199 0
-35 -2 0
-35 -102 0
-35 -110 0
-35 -119 0
-35 -181 0
-35 -190 0
-35 -199 0
-2 -102 0
-2 -110 0
-2 -119 0
-2 -181 0
-2 -190 0
-2 -199 0
-102 -110 0
-102 -119 0
-102 -181 0
-102 -190 0
-102 -199 0
-110 -119 0
-110 -181 0
-110 -190 0
-110 -199 0
-119 -181 0
-119 -190 0
-119 -199 0
-181 -190 0
-181 -199 0
-190 -199 0
27 36 43 103 111 120 182 191 200 0
-27 -36 0
-27 -43 0
-27 -103 0
-27 -111 0
-27 -120 0
-27 -182 0
-27 -191 0
-27 -200 0
-36 -43 0
-36 -103 0
-36 -111 0
-36 -120 0
-36 -182 0
-36 -191 0
-36 -200 0
-43 -103 0
-43 -111 0
-43 -120 0
-43 -182 0
-43 -191 0
-43 -200 0
-103 -111 0
-103 -120 0
-103 -182 0
-103 -191 0
-103 -200 0
-111 -120 0
-111 -182 0
-111 -191 0
-111 -200 0
-120 -182 0
-120 -191 0
-120 -200 0
-182 -191 0
-182 -200 0
-191 -200 0
28 37 44 6 112 121 183 192 201 0
-28 -37 0
-28 -44 0
-28 -6 0
-28 -112 0
-28 -121 0
-28 -183 0
-28 -192 0
-28 -201 0
-37 -44 0
-37 -6 0
-37 -112 0
-37 -121 0
-37 -183 0
-37 -192 0
-37 -201 0
-44 -6 0
-44 -112 0
-44 -121 0
-44 -183 0
-44 -192 0
-44 -201 0
-6 -112 0
-6 -121 0
-6 -183 0
-6 -192 0
-6 -201 0
-112 -121 0
-112 -183 0
-112 -192 0
-112 -201 0
-121 -183 0
-121 -192 0
-121 -201 0
-183 -192 0
-183 -201 0
-192 -201 0
29 38 45 104 113 122 184 193 202 0
-29 -38 0
-29 -45 0
-29 -104 0
-29 -113 0
-29 -122 0
-29 -184 0
-29 -193 0
-29 -202 0
-38 -45 0
-38 -104 0
-38 -113 0
-38 -122 0
-38 -184 0
-38 -193 0
-38 -202 0
-45 -104 0
-45 -113 0
-45 -122 0
-45 -184 0
-45 -193 0
-45 -202 0
-104 -113 0
-104 -122 0
-104 -184 0
-104 -193 0
-104 -202 0
-113 -122 0
-113 -184 0
-113 -193 0
-113 -202 0
-122 -184 0
-122 -193 0
-122 -202 0
-184 -193 0
-184 -202 0
-193 -202 0
30 39 46 105 114 123 185 194 203 0
-30 -39 0
-30 -46 0
-30 -105 0
-30 -114 0
-30 -123 0
-30 -185 0
-30 -194 0
-30 -203 0
-39 -46 0
-39 -105 0
-39 -114 0
-39 -123 0
-39 -185 0
-39 -194 0
-39 -203 0
-46 -105 0
-46 -114 0
-46 -123 0
-46 -185 0
-46 -194 0
-46 -203 0
-105 -114 0
-105 -123 0
-105 -185 0
-105 -194 0
-105 -203 0
-114 -123 0
-114 -185 0
-114 -194 0
-114 -203 0
-123 -185 0
-123 -194 0
-123 -203 0
-185 -194 0
-185 -203 0
-194 -203 0
31 1 47 106 115 124 186 195 204 0
-31 -1 0
-31 -47 0
-31 -106 0
-31 -115 0
-31 -124 0
-31 -186 0
-31 -195 0
-31 -204 0
-1 -47 0
-1 -106 0
-1 -115 0
-1 -124 0
-1 -186 0
-1 -195 0
-1 -204 0
-47 -106 0
-47 -115 0
-47 -124 0
-47 -186 0
-47 -195 0
-47 -204 0
-106 -115 0
-106 -124 0
-106 -186 0
-106 -195 0
-106 -204 0
-115 -124 0
-115 -186 0
-115 -195 0
-115 -204 0
-124 -186 0
-124 -195 0
-124 -204 0
-186 -195 0
-186 -204 0
-195 -204 0
32 40 48 107 116 125 187 196 205 0
-32 -40 0
-32 -48 0
-32 -107 0
-32 -116 0
-32 -125 0
-32 -187 0
-32 -196 0
-32 -205 0
-40 -48 0
-40 -107 0
-40 -116 0
-40 -125 0
-40 -187 0
-40 -196 0
-40 -205 0
-48 -107 0
-48 -116 0
-48 -125 0
-48 -187 0
-48 -196 0
-48 -205 0
-107 -116 0
-107 -125 0
-107 -187 0
-107 -196 0
-107 -205 0
-116 -125 0
-116 -187 0
-116 -196 0
-116 -205 0
-125 -187 0
-125 -196 0
-125 -205 0
-187 -196 0
-187 -205 0
-196 -205 0
49 58 66 126 135 144 206 214 223 0
-49 -58 0
-49 -66 0
-49 -126 0
-49 -135 0
-49 -144 0
-49 -206 0
-49 -214 0
-49 -223 0
-58 -66 0
-58 -126 0
-58 -135 0
-58 -144 0
-58 -206 0
-58 -214 0
-58 -223 0
-66 -126 0
-66 -135 0
-66 -144 0
-66 -206 0
-66 -214 0
-66 -223 0
-126 -135 0
-126 -144 0
-126 -206 0
-126 -214 0
-126 -223 0
-135 -144 0
-135 -206 0
-135 -214 0
-135 -223 0
-144 -206 0
-144 -214 0
-144 -223 0
-206 -214 0
-206 -223 0
-214 -223 0
50 59 67 127 136 145 207 215 224 0
-50 -59 0
-50 -67 0
-50 -127 0
-50 -136 0
-50 -145 0
-50 -207 0
-50 -215 0
-50 -224 0
-59 -67 0
-59 -127 0
-59 -136 0
-59 -145 0
-59 -207 0
-59 -215 0
-59 -224 0
-67 -127 0
-67 -136 0
-67 -145 0
-67 -207 0
-67 -215 0
-67 -224 0
-127 -136 0
-127 -145 0
-127 -207 0
-127 -215 0
-127 -224 0
-136 -145 0
-136 -207 0
-136 -215 0
-136 -224 0
-145 -207 0
-145 -215 0
-145 -224 0
-207 -215 0
-207 -224 0
-215 -224 0
51 60 68 128 137 146 208 216 225 0
-51 -60 0
-51 -68 0
-51 -128 0
-51 -137 0
-51 -146 0
-51 -208 0
-51 -216 0
-51 -225 0
-60 -68 0
-60 -128 0
-60 -137 0
-60 -146 0
-60 -208 0
-60 -216 0
-60 -225 0
-68 -128 0
-68 -137 0
-68 -146 0
-68 -208 0
-68 -216 0
-68 -225 0
-128 -137 0
-128 -146 0
-128 -208 0
-128 -216 0
-128 -225 0
-137 -146 0
-137 -208 0
-137 -216 0
-137 -225 0
-146 -208 0
-146 -216 0
-146 -225 0
-208 -216 0
-208 -225 0
-216 -225 0
52 61 69 129 138 147 209 217 226 0
-52 -61 0
-52 -69 0
-52 -129 0
-52 -138 0
-52 -147 0
-52 -209 0
-52 -217 0
-52 -226 0
-61 -69 0
-61 -129 0
-61 -138 0
-61 -147 0
-61 -209 0
-61 -217 0
-61 -226 0
-69 -129 0
-69 -138 0
-69 -147 0
-69 -209 0
-69 -217 0
-69 -226 0
-129 -138 0
-129 -147 0
-129 -209 0
-129 -217 0
-129 -226 0
-138 -147 0
-138 -209 0
-138 -217 0
-138 -226 0
-147 -209 0
-147 -217 0
-147 -226 0
-209 -217 0
-209 -226 0
-217 -226 0
53 62 70 130 139 148 210 218 227 0
-53 -62 0
-53 -70 0
-53 -130 0
-53 -139 0
-53 -148 0
-53 -210 0
-53 -218 0
-53 -227 0
-62 -70 0
-62 -130 0
-62 -139 0
-62 -148 0
-62 -210 0
-62 -218 0
-62 -227 0
-70 -130 0
-70 -139 0
-70 -148 0
-70 -210 0
-70 -218 0
-70 -227 0
-130 -139 0
-130 -148 0
-130 -210 0
-130 -218 0
-130 -227 0
-139 -148 0
-139 -210 0
-139 -218 0
-139 -227 0
-148 -210 0
-148 -218 0
-148 -227 0
-210 -218 0
-210 -227 0
-218 -227 0
54 63 71 131 140 149 211 219 228 0
-54 -63 0
-54 -71 0
-54 -131 0
-54 -140 0
-54 -149 0
-54 -211 0
-54 -219 0
-54 -228 0
-63 -71 0
-63 -131 0
-63 -140 0
-63 -149 0
-63 -211 0
-63 -219 0
-63 -228 0
-71 -131 0
-71 -140 0
-71 -149 0
-71 -211 0
-71 -219 0
-71 -228 0
-131 -140 0
-131 -149 0
-131 -211 0
-131 -219 0
-131 -228 0
-140 -149 0
-140 -211 0
-140 -219 0
-140 -228 0
-149 -211 0
-149 -219 0
-149 -228 0
-211 -219 0
-211 -228 0
-219 -228 0
55 64 72 132 141 150 8 220 229 0
-55 -64 0
-55 -72 0
-55 -132 0
-55 -141 0
-55 -150 0
-55 -8 0
-55 -220 0
-55 -229 0
-64 -72 0
-64 -132 0
-64 -141 0
-64 -150 0
-64 -8 0
-64 -220 0
-64 -229 0
-72 -132 0
-72 -141 0
-72 -150 0
-72 -8 0
-72 -220 0
-72 -229 0
-132 -141 0
-132 -150 0
-132 -8 0
-132 -220 0
-132 -229 0
-141 -150 0
-141 -8 0
-141 -220 0
-141 -229 0
-150 -8 0
-150 -220 0
-150 -229 0
-8 -220 0
-8 -229 0
-220 -229 0
56 65 73 133 142 151 212 221 230 0
-56 -65 0
-56 -73 0
-56 -133 0
-56 -142 0
-56 -151 0
-56 -212 0
-56 -221 0
-56 -230 0
-65 -73 0
-65 -133 0
-65 -142 0
-65 -151 0
-65 -212 0
-65 -221 0
-65 -230 0
-73 -133 0
-73 -142 0
-73 -151 0
-73 -212 0
-73 -221 0
-73 -230 0
-133 -142 0
-133 -151 0
-133 -212 0
-133 -221 0
-133 -230 0
-142 -151 0
-142 -212 0
-142 -221 0
-142 -230 0
-151 -212 0
-151 -221 0
-151 -230 0
-212 -221 0
-212 -230 0
-221 -230 0
57 3 74 134 143 152 213 222 231 0
-57 -3 0
-57 -74 0
-57 -134 0
-57 -143 0
-57 -152 0
-57 -213 0
-57 -222 0
-57 -231 0
-3 -74 0
-3 -134 0
-3 -143 0
-3 -152 0
-3 -213 0
-3 -222 0
-3 -231 0
-74 -134 0
-74 -143 0
-74 -152 0
-74 -213 0
-74 -222 0
-74 -231 0
-134 -143 0
-134 -152 0
-134 -213 0
-134 -222 0
-134 -231 0
-143 -152 0
-143 -213 0
-143 -222 0
-143 -231 0
-152 -213 0
-152 -222 0
-152 -231 0
-213 -222 0
-213 -231 0
-222 -231 0
75 83 91 153 162 171 232 241 250 0
-75 -83 0
-75 -91 0
-75 -153 0
-75 -162 0
-75 -171 0
-75 -232 0
-75 -241 0
-75 -250 0
-83 -91 0
-83 -153 0
-83 -162 0
-83 -171 0
-83 -232 0
-83 -241 0
-83 -250 0
-91 -153 0
-91 -162 0
-91 -171 0
-91 -232 0
-91 -241 0
-91 -250 0
-153 -162 0
-153 -171 0
-153 -232 0
-153 -241 0
-153 -250 0
-162 -171 0
-162 -232 0
-162 -241 0
-162 -250 0
-171 -232 0
-171 -241 0
-171 -250 0
-232 -241 0
-232 -250 0
-241 -250 0
76 84 92 154 163 7 233 242 251 0
-76 -84 0
-76 -92 0
-76 -154 0
-76 -163 0
-76 -7 0
-76 -233 0
-76 -242 0
-76 -251 0
-84 -92 0
-84 -154 0
-84 -163 0
-84 -7 0
-84 -233 0
-84 -242 0
-84 -251 0
-92 -154 0
-92 -163 0
-92 -7 0
-92 -233 0
-92 -242 0
-92 -251 0
-154 -163 0
-154 -7 0
-154 -233 0
-154 -242 0
-154 -251 0
-163 -7 0
-163 -233 0
-163 -242 0
-163 -251 0
-7 -233 0
-7 -242 0
-7 -251 0
-233 -242 0
-233 -251 0
-242 -251 0
77 85 93 155 164 172 234 243 252 0
-77 -85 0
-77 -93 0
-77 -155 0
-77 -164 0
-77 -172 0
-77 -234 0
-77 -243 0
-77 -252 0
-85 -93 0
-85 -155 0
-85 -164 0
-85 -172 0
-85 -234 0
-85 -243 0
-85 -252 0
-93 -155 0
-93 -164 0
-93 -172 0
-93 -234 0
-93 -243 0
-93 -252 0
-155 -164 0
-155 -172 0
-155 -234 0
-155 -243 0
-155 -252 0
-164 -172 0
-164 -234 0
-164 -243 0
-164 -252 0
-172 -234 0
-172 -243 0
-172 -252 0
-234 -243 0
-234 -252 0
-243 -252 0
78 86 94 156 165 173 235 244 253 0
-78 -86 0
-78 -94 0
-78 -156 0
-78 -165 0
-78 -173 0
-78 -235 0
-78 -244 0
-78 -253 0
-86 -94 0
-86 -156 0
-86 -165 0
-86 -173 0
-86 -235 0
-86 -244 0
-86 -253 0
-94 -156 0
-94 -165 0
-94 -173 0
-94 -235 0
-94 -244 0
-94 -253 0
-156 -165 0
-156 -173 0
-156 -235 0
-156 -244 0
-156 -253 0
-165 -173 0
-165 -235 0
-165 -244 0
-165 -253 0
-173 -235 0
-173 -244 0
-173 -253 0
-235 -244 0
-235 -253 0
-244 -253 0
79 5 95 157 166 174 236 245 254 0
-79 -5 0
-79 -95 0
-79 -157 0
-79 -166 0
-79 -174 0
-79 -236 0
-79 -245 0
-79 -254 0
-5 -95 0
-5 -157 0
-5 -166 0
-5 -174 0
-5 -236 0
-5 -245 0
-5 -254 0
-95 -157 0
-95 -166 0
-95 -174 0
-95 -236 0
-95 -245 0
-95 -254 0
-157 -166 0
-157 -174 0
-157 -236 0
-157 -245 0
-157 -254 0
-166 -174 0
-166 -236 0
-166 -245 0
-166 -254 0
-174 -236 0
-174 -245 0
-174 -254 0
-236 -245 0
-236 -254 0
-245 -254 0
80 87 96 158 167 175 237 246 9 0
-80 -87 0
-80 -96 0
-80 -158 0
-80 -167 0
-80 -175 0
-80 -237 0
-80 -246 0
-80 -9 0
-87 -96 0
-87 -158 0
-87 -167 0
-87 -175 0
-87 -237 0
-87 -246 0
-87 -9 0
-96 -158 0
-96 -167 0
-96 -175 0
-96 -237 0
-96 -246 0
-96 -9 0
-158 -167 0
-158 -175 0
-158 -237 0
-158 -246 0
-158 -9 0
-167 -175 0
-167 -237 0
-167 -246 0
-167 -9 0
-175 -237 0
-175 -246 0
-175 -9 0
-237 -246 0
-237 -9 0
-246 -9 0
4 88 97 159 168 176 238 247 255 0
-4 -88 0
-4 -97 0
-4 -159 0
-4 -168 0
-4 -176 0
-4 -238 0
-4 -247 0
-4 -255 0
-88 -97 0
-88 -159 0
-88 -168 0
-88 -176 0
-88 -238 0
-88 -247 0
-88 -255 0
-97 -159 0
-97 -168 0
-97 -176 0
-97 -238 0
-97 -247 0
-97 -255 0
-159 -168 0
-159 -176 0
-159 -238 0
-159 -247 0
-159 -255 0
-168 -176 0
-168 -238 0
-168 -247 0
-168 -255 0
-176 -238 0
-176 -247 0
-176 -255 0
-238 -247 0
-238 -255 0
-247 -255 0
81 89 98 160 169 177 239 248 256 0
-81 -89 0
-81 -98 0
-81 -160 0
-81 -169 0
-81 -177 0
-81 -239 0
-81 -248 0
-81 -256 0
-89 -98 0
-89 -160 0
-89 -169 0
-89 -177 0
-89 -239 0
-89 -248 0
-89 -256 0
-98 -160 0
-98 -169 0
-98 -177 0
-98 -239 0
-98 -248 0
-98 -256 0
-160 -169 0
-160 -177 0
-160 -239 0
-160 -248 0
-160 -256 0
-169 -177 0
-169 -239 0
-169 -248 0
-169 -256 0
-177 -239 0
-177 -248 0
-177 -256 0
-239 -248 0
-239 -256 0
-248 -256 0
82 90 99 161 170 178 240 249 257 0
-82 -90 0
-82 -99 0
-82 -161 0
-82 -170 0
-82 -178 0
-82 -240 0
-82 -249 0
-82 -257 0
-90 -99 0
-90 -161 0
-90 -170 0
-90 -178 0
-90 -240 0
-90 -249 0
-90 -257 0
-99 -161 0
-99 -170 0
-99 -178 0
-99 -240 0
-99 -249 0
-99 -257 0
-161 -170 0
-161 -178 0
-161 -240 0
-161 -249 0
-161 -257 0
-170 -178 0
-170 -240 0
-170 -249 0
-170 -257 0
-178 -240 0
-178 -249 0
-178 -257 0
-240 -249 0
-240 -257 0
-249 -257 0
258 266 275 335 344 353 415 424 15 0
-258 -266 0
-258 -275 0
-258 -335 0
-258 -344 0
-258 -353 0
-258 -415 0
-258 -424 0
-258 -15 0
-266 -275 0
-266 -335 0
-266 -344 0
-266 -353 0
-266 -415 0
-266 -424 0
-266 -15 0
-275 -335 0
-275 -344 0
-275 -353 0
-275 -415 0
-275 -424 0
-275 -15 0
-335 -344 0
-335 -353 0
-335 -415 0
-335 -424 0
-335 -15 0
-344 -353 0
-344 -415 0
-344 -424 0
-344 -15 0
-353 -415 0
-353 -424 0
-353 -15 0
-415 -424 0
-415 -15 0
-424 -15 0
259 267 276 336 345 354 416 425 433 0
-259 -267 0
-259 -276 0
-259 -336 0
-259 -345 0
-259 -354 0
-259 -416 0
-259 -425 0
-259 -433 0
-267 -276 0
-267 -336 0
-267 -345 0
-267 -354 0
-267 -416 0
-267 -425 0
-267 -433 0
-276 -336 0
-276 -345 0
-276 -354 0
-276 -416 0
-276 -425 0
-276 -433 0
-336 -345 0
-336 -354 0
-336 -416 0
-336 -425 0
-336 -433 0
-345 -354 0
-345 -416 0
-345 -425 0
-345 -433 0
-354 -416 0
-354 -425 0
-354 -433 0
-416 -425 0
-416 -433 0
-425 -433 0
10 268 277 337 346 355 417 426 434 0
-10 -268 0
-10 -277 0
-10 -337 0
-10 -346 0
-10 -355 0
-10 -417 0
-10 -426 0
-10 -434 0
-268 -277 0
-268 -337 0
-268 -346 0
-268 -355 0
-268 -417 0
-268 -426 0
-268 -434 0
-277 -337 0
-277 -346 0
-277 -355 0
-277 -417 0
-277 -426 0
-277 -434 0
-337 -346 0
-337 -355 0
-337 -417 0
-337 -426 0
-337 -434 0
-346 -355 0
-346 -417 0
-346 -426 0
-346 -434 0
-355 -417 0
-355 -426 0
-355 -434 0
-417 -426 0
-417 -434 0
-426 -434 0
260 269 278 338 347 356 418 427 435 0
-260 -269 0
-260 -278 0
-260 -338 0
-260 -347 0
-260 -356 0
-260 -418 0
-260 -427 0
-260 -435 0
-269 -278 0
-269 -338 0
-269 -347 0
-269 -356 0
-269 -418 0
-269 -427 0
-269 -435 0
-278 -338 0
-278 -347 0
-278 -356 0
-278 -418 0
-278 -427 0
-278 -435 0
-338 -347 0
-338 -356 0
-338 -418 0
-338 -427 0
-338 -435 0
-347 -356 0
-347 -418 0
-347 -427 0
-347 -435 0
-356 -418 0
-356 -427 0
-356 -435 0
-418 -427 0
-418 -435 0
-427 -435 0
261 270 279 339 348 357 419 428 436 0
-261 -270 0
-261 -279 0
-261 -339 0
-261 -348 0
-261 -357 0
-261 -419 0
-261 -428 0
-261 -436 0
-270 -279 0
-270 -339 0
-270 -348 0
-270 -357 0
-270 -419 0
-270 -428 0
-270 -436 0
-279 -339 0
-279 -348 0
-279 -357 0
-279 -419 0
-279 -428 0
-279 -436 0
-339 -348 0
-339 -357 0
-339 -419 0
-339 -428 0
-339 -436 0
-348 -357 0
-348 -419 0
-348 -428 0
-348 -436 0
-357 -419 0
-357 -428 0
-357 -436 0
-419 -428 0
-419 -436 0
-428 -436 0
262 271 280 340 349 358 420 429 437 0
-262 -271 0
-262 -280 0
-262 -340 0
-262 -349 0
-262 -358 0
-262 -420 0
-262 -429 0
-262 -437 0
-271 -280 0
-271 -340 0
-271 -349 0
-271 -358 0
-271 -420 0
-271 -429 0
-271 -437 0
-280 -340 0
-280 -349 0
-280 -358 0
-280 -420 0
-280 -429 0
-280 -437 0
-340 -349 0
-340 -358 0
-340 -420 0
-340 -429 0
-340 -437 0
-349 -358 0
-349 -420 0
-349 -429 0
-349 -437 0
-358 -420 0
-358 -429 0
-358 -437 0
-420 -429 0
-420 -437 0
-429 -437 0
263 272 281 341 350 359 421 430 438 0
-263 -272 0
-263 -281 0
-263 -341 0
-263 -350 0
-263 -359 0
-263 -421 0
-263 -430 0
-263 -438 0
-272 -281 0
-272 -341 0
-272 -350 0
-272 -359 0
-272 -421 0
-272 -430 0
-272 -438 0
-281 -341 0
-281 -350 0
-281 -359 0
-281 -421 0
-281 -430 0
-281 -438 0
-341 -350 0
-341 -359 0
-341 -421 0
-341 -430 0
-341 -438 0
-350 -359 0
-350 -421 0
-350 -430 0
-350 -438 0
-359 -421 0
-359 -430 0
-359 -438 0
-421 -430 0
-421 -438 0
-430 -438 0
264 273 282 342 351 360 422 431 439 0
-264 -273 0
-264 -282 0
-264 -342 0
-264 -351 0
-264 -360 0
-264 -422 0
-264 -431 0
-264 -439 0
-273 -282 0
-273 -342 0
-273 -351 0
-273 -360 0
-273 -422 0
-273 -431 0
-273 -439 0
-282 -342 0
-282 -351 0
-282 -360 0
-282 -422 0
-282 -431 0
-282 -439 0
-342 -351 0
-342 -360 0
-342 -422 0
-342 -431 0
-342 -439 0
-351 -360 0
-351 -422 0
-351 -431 0
-351 -439 0
-360 -422 0
-360 -431 0
-360 -439 0
-422 -431 0
-422 -439 0
-431 -439 0
265 274 283 343 352 361 423 432 440 0
-265 -274 0
-265 -283 0
-265 -343 0
-265 -352 0
-265 -361 0
-265 -423 0
-265 -432 0
-265 -440 0
-274 -283 0
-274 -343 0
-274 -352 0
-274 -361 0
-274 -423 0
-274 -432 0
-274 -440 0
-283 -343 0
-283 -352 0
-283 -361 0
-283 -423 0
-283 -432 0
-283 -440 0
-343 -352 0
-343 -361 0
-343 -423 0
-343 -432 0
-343 -440 0
-352 -361 0
-352 -423 0
-352 -432 0
-352 -440 0
-361 -423 0
-361 -432 0
-361 -440 0
-423 -432 0
-423 -440 0
-432 -440 0
11 292 301 362 371 380 441 450 458 0
-11 -292 0
-11 -301 0
-11 -362 0
-11 -371 0
-11 -380 0
-11 -441 0
-11 -450 0
-11 -458 0
-292 -301 0
-292 -362 0
-292 -371 0
-292 -380 0
-292 -441 0
-292 -450 0
-292 -458 0
-301 -362 0
-301 -371 0
-301 -380 0
-301 -441 0
-301 -450 0
-301 -458 0
-362 -371 0
-362 -380 0
-362 -441 0
-362 -450 0
-362 -458 0
-371 -380 0
-371 -441 0
-371 -450 0
-371 -458 0
-380 -441 0
-380 -450 0
-380 -458 0
-441 -450 0
-441 -458 0
-450 -458 0
284 293 302 363 372 381 442 16 459 0
-284 -293 0
-284 -302 0
-284 -363 0
-284 -372 0
-284 -381 0
-284 -442 0
-284 -16 0
-284 -459 0
-293 -302 0
-293 -363 0
-293 -372 0
-293 -381 0
-293 -442 0
-293 -16 0
-293 -459 0
-302 -363 0
-302 -372 0
-302 -381 0
-302 -442 0
-302 -16 0
-302 -459 0
-363 -372 0
-363 -381 0
-363 -442 0
-363 -16 0
-363 -459 0
-372 -381 0
-372 -442 0
-372 -16 0
-372 -459 0
-381 -442 0
-381 -16 0
-381 -459 0
-442 -16 0
-442 -459 0
-16 -459 0
285 294 303 364 373 382 443 451 460 0
-285 -294 0
-285 -303 0
-285 -364 0
-285 -373 0
-285 -382 0
-285 -443 0
-285 -451 0
-285 -460 0
-294 -303 0
-294 -364 0
-294 -373 0
-294 -382 0
-294 -443 0
-294 -451 0
-294 -460 0
-303 -364 0
-303 -373 0
-303 -382 0
-303 -443 0
-303 -451 0
-303 -460 0
-364 -373 0
-364 -382 0
-364 -443 0
-364 -451 0
-364 -460 0
-373 -382 0
-373 -443 0
-373 -451 0
-373 -460 0
-382 -443 0
-382 -451 0
-382 -460 0
-443 -451 0
-443 -460 0
-451 -460 0
286 295 304 365 374 383 444 452 461 0
-286 -295 0
-286 -304 0
-286 -365 0
-286 -374 0
-286 -383 0
-286 -444 0
-286 -452 0
-286 -461 0
-295 -304 0
-295 -365 0
-295 -374 0
-295 -383 0
-295 -444 0
-295 -452 0
-295 -461 0
-304 -365 0
-304 -374 0
-304 -383 0
-304 -444 0
-304 -452 0
-304 -461 0
-365 -374 0
-365 -383 0
-365 -444 0
-365 -452 0
-365 -461 0
-374 -383 0
-374 -444 0
-374 -452 0
-374 -461 0
-383 -444 0
-383 -452 0
-383 -461 0
-444 -452 0
-444 -461 0
-452 -461 0
287 296 305 366 375 384 445 453 462 0
-287 -296 0
-287 -305 0
-287 -366 0
-287 -375 0
-287 -384 0
-287 -445 0
-287 -453 0
-287 -462 0
-296 -305 0
-296 -366 0
-296 -375 0
-296 -384 0
-296 -445 0
-296 -453 0
-296 -462 0
-305 -366 0
-305 -375 0
-305 -384 0
-305 -445 0
-305 -453 0
-305 -462 0
-366 -375 0
-366 -384 0
-366 -445 0
-366 -453 0
-366 -462 0
-375 -384 0
-375 -445 0
-375 -453 0
-375 -462 0
-384 -445 0
-384 -453 0
-384 -462 0
-445 -453 0
-445 -462 0
-453 -462 0
288 297 306 367 376 385 446 454 463 0
-288 -297 0
-288 -306 0
-288 -367 0
-288 -376 0
-288 -385 0
-288 -446 0
-288 -454 0
-288 -463 0
-297 -306 0
-297 -367 0
-297 -376 0
-297 -385 0
-297 -446 0
-297 -454 0
-297 -463 0
-306 -367 0
-306 -376 0
-306 -385 0
-306 -446 0
-306 -454 0
-306 -463 0
-367 -376 0
-367 -385 0
-367 -446 0
-367 -454 0
-367 -463 0
-376 -385 0
-376 -446 0
-376 -454 0
-376 -463 0
-385 -446 0
-385 -454 0
-385 -463 0
-446 -454 0
-446 -463 0
-454 -463 0
289 298 307 368 377 386 447 455 464 0
-289 -298 0
-289 -307 0
-289 -368 0
-289 -377 0
-289 -386 0
-289 -447 0
-289 -455 0
-289 -464 0
-298 -307 0
-298 -368 0
-298 -377 0
-298 -386 0
-298 -447 0
-298 -455 0
-298 -464 0
-307 -368 0
-307 -377 0
-307 -386 0
-307 -447 0
-307 -455 0
-307 -464 0
-368 -377 0
-368 -386 0
-368 -447 0
-368 -455 0
-368 -464 0
-377 -386 0
-377 -447 0
-377 -455 0
-377 -464 0
-386 -447 0
-386 -455 0
-386 -464 0
-447 -455 0
-447 -464 0
-455 -464 0
290 299 308 369 378 387 448 456 465 0
-290 -299 0
-290 -308 0
-290 -369 0
-290 -378 0
-290 -387 0
-290 -448 0
-290 -456 0
-290 -465 0
-299 -308 0
-299 -369 0
-299 -378 0
-299 -387 0
-299 -448 0
-299 -456 0
-299 -465 0
-308 -369 0
-308 -378 0
-308 -387 0
-308 -448 0
-308 -456 0
-308 -465 0
-369 -378 0
-369 -387 0
-369 -448 0
-369 -456 0
-369 -465 0
-378 -387 0
-378 -448 0
-378 -456 0
-378 -465 0
-387 -448 0
-387 -456 0
-387 -465 0
-448 -456 0
-448 -465 0
-456 -465 0
291 300 309 370 379 388 449 457 466 0
-291 -300 0
-291 -309 0
-291 -370 0
-291 -379 0
-291 -388 0
-291 -449 0
-291 -457 0
-291 -466 0
-300 -309 0
-300 -370 0
-300 -379 0
-300 -388 0
-300 -449 0
-300 -457 0
-300 -466 0
-309 -370 0
-309 -379 0
-309 -388 0
-309 -449 0
-309 -457 0
-309 -466 0
-370 -379 0
-370 -388 0
-370 -449 0
-370 -457 0
-370 -466 0
-379 -388 0
-379 -449 0
-379 -457 0
-379 -466 0
-388 -449 0
-388 -457 0
-388 -466 0
-449 -457 0
-449 -466 0
-457 -466 0
310 318 326 389 397 406 467 476 485 0
-310 -318 0
-310 -326 0
-310 -389 0
-310 -397 0
-310 -406 0
-310 -467 0
-310 -476 0
-310 -485 0
-318 -326 0
-318 -389 0
-318 -397 0
-318 -406 0
-318 -467 0
-318 -476 0
-318 -485 0
-326 -389 0
-326 -397 0
-326 -406 0
-326 -467 0
-326 -476 0
-326 -485 0
-389 -397 0
-389 -406 0
-389 -467 0
-389 -476 0
-389 -485 0
-397 -406 0
-397 -467 0
-397 -476 0
-397 -485 0
-406 -467 0
-406 -476 0
-406 -485 0
-467 -476 0
-467 -485 0
-476 -485 0
311 319 327 390 398 407 468 477 486 0
-311 -319 0
-311 -327 0
-311 -390 0
-311 -398 0
-311 -407 0
-311 -468 0
-311 -477 0
-311 -486 0
-319 -327 0
-319 -390 0
-319 -398 0
-319 -407 0
-319 -468 0
-319 -477 0
-319 -486 0
-327 -390 0
-327 -398 0
-327 -407 0
-327 -468 0
-327 -477 0
-327 -486 0
-390 -398 0
-390 -407 0
-390 -468 0
-390 -477 0
-390 -486 0
-398 -407 0
-398 -468 0
-398 -477 0
-398 -486 0
-407 -468 0
-407 -477 0
-407 -486 0
-468 -477 0
-468 -486 0
-477 -486 0
312 320 328 391 399 408 469 478 487 0
-312 -320 0
-312 -328 0
-312 -391 0
-312 -399 0
-312 -408 0
-312 -469 0
-312 -478 0
-312 -487 0
-320 -328 0
-320 -391 0
-320 -399 0
-320 -408 0
-320 -469 0
-320 -478 0
-320 -487 0
-328 -391 0
-328 -399 0
-328 -408 0
-328 -469 0
-328 -478 0
-328 -487 0
-391 -399 0
-391 -408 0
-391 -469 0
-391 -478 0
-391 -487 0
-399 -408 0
-399 -469 0
-399 -478 0
-399 -487 0
-408 -469 0
-408 -478 0
-408 -487 0
-469 -478 0
-469 -487 0
-478 -487 0
313 321 329 392 400 409 470 479 488 0
-313 -321 0
-313 -329 0
-313 -392 0
-313 -400 0
-313 -409 0
-313 -470 0
-313 -479 0
-313 -488 0
-321 -329 0
-321 -392 0
-321 -400 0
-321 -409 0
-321 -470 0
-321 -479 0
-321 -488 0
-329 -392 0
-329 -400 0
-329 -409 0
-329 -470 0
-329 -479 0
-329 -488 0
-392 -400 0
-392 -409 0
-392 -470 0
-392 -479 0
-392 -488 0
-400 -409 0
-400 -470 0
-400 -479 0
-400 -488 0
-409 -470 0
-409 -479 0
-409 -488 0
-470 -479 0
-470 -488 0
-479 -488 0
314 322 330 393 401 410 471 480 489 0
-314 -322 0
-314 -330 0
-314 -393 0
-314 -401 0
-314 -410 0
-314 -471 0
-314 -480 0
-314 -489 0
-322 -330 0
-322 -393 0
-322 -401 0
-322 -410 0
-322 -471 0
-322 -480 0
-322 -489 0
-330 -393 0
-330 -401 0
-330 -410 0
-330 -471 0
-330 -480 0
-330 -489 0
-393 -401 0
-393 -410 0
-393 -471 0
-393 -480 0
-393 -489 0
-401 -410 0
-401 -471 0
-401 -480 0
-401 -489 0
-410 -471 0
-410 -480 0
-410 -489 0
-471 -480 0
-471 -489 0
-480 -489 0
315 323 331 14 402 411 472 481 490 0
-315 -323 0
-315 -331 0
-315 -14 0
-315 -402 0
-315 -411 0
-315 -472 0
-315 -481 0
-315 -490 0
-323 -331 0
-323 -14 0
-323 -402 0
-323 -411 0
-323 -472 0
-323 -481 0
-323 -490 0
-331 -14 0
-331 -402 0
-331 -411 0
-331 -472 0
-331 -481 0
-331 -490 0
-14 -402 0
-14 -411 0
-14 -472 0
-14 -481 0
-14 -490 0
-402 -411 0
-402 -472 0
-402 -481 0
-402 -490 0
-411 -472 0
-411 -481 0
-411 -490 0
-472 -481 0
-472 -490 0
-481 -490 0
316 13 332 394 403 412 473 482 491 0
-316 -13 0
-316 -332 0
-316 -394 0
-316 -403 0
-316 -412 0
-316 -473 0
-316 -482 0
-316 -491 0
-13 -332 0
-13 -394 0
-13 -403 0
-13 -412 0
-13 -473 0
-13 -482 0
-13 -491 0
-332 -394 0
-332 -403 0
-332 -412 0
-332 -473 0
-332 -482 0
-332 -491 0
-394 -403 0
-394 -412 0
-394 -473 0
-394 -482 0
-394 -491 0
-403 -412 0
-403 -473 0
-403 -482 0
-403 -491 0
-412 -473 0
-412 -482 0
-412 -491 0
-473 -482 0
-473 -491 0
-482 -491 0
12 324 333 395 404 413 474 483 492 0
-12 -324 0
-12 -333 0
-12 -395 0
-12 -404 0
-12 -413 0
-12 -474 0
-12 -483 0
-12 -492 0
-324 -333 0
-324 -395 0
-324 -404 0
-324 -413 0
-324 -474 0
-324 -483 0
-324 -492 0
-333 -395 0
-333 -404 0
-333 -413 0
-333 -474 0
-333 -483 0
-333 -492 0
-395 -404 0
-395 -413 0
-395 -474 0
-395 -483 0
-395 -492 0
-404 -413 0
-404 -474 0
-404 -483 0
-404 -492 0
-413 -474 0
-413 -483 0
-413 -492 0
-474 -483 0
-474 -492 0
-483 -492 0
317 325 334 396 405 414 475 484 493 0
-317 -325 0
-317 -334 0
-317 -396 0
-317 -405 0
-317 -414 0
-317 -475 0
-317 -484 0
-317 -493 0
-325 -334 0
-325 -396 0
-325 -405 0
-325 -414 0
-325 -475 0
-325 -484 0
-325 -493 0
-334 -396 0
-334 -405 0
-334 -414 0
-334 -475 0
-334 -484 0
-334 -493 0
-396 -405 0
-396 -414 0
-396 -475 0
-396 -484 0
-396 -493 0
-405 -414 0
-405 -475 0
-405 -484 0
-405 -493 0
-414 -475 0
-414 -484 0
-414 -493 0
-475 -484 0
-475 -493 0
-484 -493 0
494 503 512 574 582 591 651 660 668 0
-494 -503 0
-494 -512 0
-494 -574 0
-494 -582 0
-494 -591 0
-494 -651 0
-494 -660 0
-494 -668 0
-503 -512 0
-503 -574 0
-503 -582 0
-503 -591 0
-503 -651 0
-503 -660 0
-503 -668 0
-512 -574 0
-512 -582 0
-512 -591 0
-512 -651 0
-512 -660 0
-512 -668 0
-574 -582 0
-574 -591 0
-574 -651 0
-574 -660 0
-574 -668 0
-582 -591 0
-582 -651 0
-582 -660 0
-582 -668 0
-591 -651 0
-591 -660 0
-591 -668 0
-651 -660 0
-651 -668 0
-660 -668 0
495 504 513 575 583 592 652 661 669 0
-495 -504 0
-495 -513 0
-495 -575 0
-495 -583 0
-495 -592 0
-495 -652 0
-495 -661 0
-495 -669 0
-504 -513 0
-504 -575 0
-504 -583 0
-504 -592 0
-504 -652 0
-504 -661 0
-504 -669 0
-513 -575 0
-513 -583 0
-513 -592 0
-513 -652 0
-513 -661 0
-513 -669 0
-575 -583 0
-575 -592 0
-575 -652 0
-575 -661 0
-575 -669 0
-583 -592 0
-583 -652 0
-583 -661 0
-583 -669 0
-592 -652 0
-592 -661 0
-592 -669 0
-652 -661 0
-652 -669 0
-661 -669 0
496 505 514 576 584 593 653 662 670 0
-496 -505 0
-496 -514 0
-496 -576 0
-496 -584 0
-496 -593 0
-496 -653 0
-496 -662 0
-496 -670 0
-505 -514 0
-505 -576 0
-505 -584 0
-505 -593 0
-505 -653 0
-505 -662 0
-505 -670 0
-514 -576 0
-514 -584 0
-514 -593 0
-514 -653 0
-514 -662 0
-514 -670 0
-576 -584 0
-576 -593 0
-576 -653 0
-576 -662 0
-576 -670 0
-584 -593 0
-584 -653 0
-584 -662 0
-584 -670 0
-593 -653 0
-593 -662 0
-593 -670 0
-653 -662 0
-653 -670 0
-662 -670 0
497 506 515 577 585 594 654 663 671 0
-497 -506 0
-497 -515 0
-497 -577 0
-497 -585 0
-497 -594 0
-497 -654 0
-497 -663 0
-497 -671 0
-506 -515 0
-506 -577 0
-506 -585 0
-506 -594 0
-506 -654 0
-506 -663 0
-506 -671 0
-515 -577 0
-515 -585 0
-515 -594 0
-515 -654 0
-515 -663 0
-515 -671 0
-577 -585 0
-577 -594 0
-577 -654 0
-577 -663 0
-577 -671 0
-585 -594 0
-585 -654 0
-585 -663 0
-585 -671 0
-594 -654 0
-594 -663 0
-594 -671 0
-654 -663 0
-654 -671 0
-663 -671 0
498 507 516 578 586 595 655 664 672 0
-498 -507 0
-498 -516 0
-498 -578 0
-498 -586 0
-498 -595 0
-498 -655 0
-498 -664 0
-498 -672 0
-507 -516 0
-507 -578 0
-507 -586 0
-507 -595 0
-507 -655 0
-507 -664 0
-507 -672 0
-516 -578 0
-516 -586 0
-516 -595 0
-516 -655 0
-516 -664 0
-516 -672 0
-578 -586 0
-578 -595 0
-578 -655 0
-578 -664 0
-578 -672 0
-586 -595 0
-586 -655 0
-586 -664 0
-586 -672 0
-595 -655 0
-595 -664 0
-595 -672 0
-655 -664 0
-655 -672 0
-664 -672 0
499 508 517 579 587 596 656 665 673 0
-499 -508 0
-499 -517 0
-499 -579 0
-499 -587 0
-499 -596 0
-499 -656 0
-499 -665 0
-499 -673 0
-508 -517 0
-508 -579 0
-508 -587 0
-508 -596 0
-508 -656 0
-508 -665 0
-508 -673 0
-517 -579 0
-517 -587 0
-517 -596 0
-517 -656 0
-517 -665 0
-517 -673 0
-579 -587 0
-579 -596 0
-579 -656 0
-579 -665 0
-579 -673 0
-587 -596 0
-587 -656 0
-587 -665 0
-587 -673 0
-596 -656 0
-596 -665 0
-596 -673 0
-656 -665 0
-656 -673 0
-665 -673 0
500 509 518 580 588 597 657 666 674 0
-500 -509 0
-500 -518 0
-500 -580 0
-500 -588 0
-500 -597 0
-500 -657 0
-500 -666 0
-500 -674 0
-509 -518 0
-509 -580 0
-509 -588 0
-509 -597 0
-509 -657 0
-509 -666 0
-509 -674 0
-518 -580 0
-518 -588 0
-518 -597 0
-518 -657 0
-518 -666 0
-518 -674 0
-580 -588 0
-580 -597 0
-580 -657 0
-580 -666 0
-580 -674 0
-588 -597 0
-588 -657 0
-588 -666 0
-588 -674 0
-597 -657 0
-597 -666 0
-597 -674 0
-657 -666 0
-657 -674 0
-666 -674 0
501 510 519 18 589 598 658 667 675 0
-501 -510 0
-501 -519 0
-501 -18 0
-501 -589 0
-501 -598 0
-501 -658 0
-501 -667 0
-501 -675 0
-510 -519 0
-510 -18 0
-510 -589 0
-510 -598 0
-510 -658 0
-510 -667 0
-510 -675 0
-519 -18 0
-519 -589 0
-519 -598 0
-519 -658 0
-519 -667 0
-519 -675 0
-18 -589 0
-18 -598 0
-18 -658 0
-18 -667 0
-18 -675 0
-589 -598 0
-589 -658 0
-589 -667 0
-589 -675 0
-598 -658 0
-598 -667 0
-598 -675 0
-658 -667 0
-658 -675 0
-667 -675 0
502 511 520 581 590 599 659 22 676 0
-502 -511 0
-502 -520 0
-502 -581 0
-502 -590 0
-502 -599 0
-502 -659 0
-502 -22 0
-502 -676 0
-511 -520 0
-511 -581 0
-511 -590 0
-511 -599 0
-511 -659 0
-511 -22 0
-511 -676 0
-520 -581 0
-520 -590 0
-520 -599 0
-520 -659 0
-520 -22 0
-520 -676 0
-581 -590 0
-581 -599 0
-581 -659 0
-581 -22 0
-581 -676 0
-590 -599 0
-590 -659 0
-590 -22 0
-590 -676 0
-599 -659 0
-599 -22 0
-599 -676 0
-659 -22 0
-659 -676 0
-22 -676 0
521 530 539 600 608 617 677 686 695 0
-521 -530 0
-521 -539 0
-521 -600 0
-521 -608 0
-521 -617 0
-521 -677 0
-521 -686 0
-521 -695 0
-530 -539 0
-530 -600 0
-530 -608 0
-530 -617 0
-530 -677 0
-530 -686 0
-530 -695 0
-539 -600 0
-539 -608 0
-539 -617 0
-539 -677 0
-539 -686 0
-539 -695 0
-600 -608 0
-600 -617 0
-600 -677 0
-600 -686 0
-600 -695 0
-608 -617 0
-608 -677 0
-608 -686 0
-608 -695 0
-617 -677 0
-617 -686 0
-617 -695 0
-677 -686 0
-677 -695 0
-686 -695 0
522 531 540 19 609 618 678 687 696 0
-522 -531 0
-522 -540 0
-522 -19 0
-522 -609 0
-522 -618 0
-522 -678 0
-522 -687 0
-522 -696 0
-531 -540 0
-531 -19 0
-531 -609 0
-531 -618 0
-531 -678 0
-531 -687 0
-531 -696 0
-540 -19 0
-540 -609 0
-540 -618 0
-540 -678 0
-540 -687 0
-540 -696 0
-19 -609 0
-19 -618 0
-19 -678 0
-19 -687 0
-19 -696 0
-609 -618 0
-609 -678 0
-609 -687 0
-609 -696 0
-618 -678 0
-618 -687 0
-618 -696 0
-678 -687 0
-678 -696 0
-687 -696 0
523 532 541 601 610 619 679 688 697 0
-523 -532 0
-523 -541 0
-523 -601 0
-523 -610 0
-523 -619 0
-523 -679 0
-523 -688 0
-523 -697 0
-532 -541 0
-532 -601 0
-532 -610 0
-532 -619 0
-532 -679 0
-532 -688 0
-532 -697 0
-541 -601 0
-541 -610 0
-541 -619 0
-541 -679 0
-541 -688 0
-541 -697 0
-601 -610 0
-601 -619 0
-601 -679 0
-601 -688 0
-601 -697 0
-610 -619 0
-610 -679 0
-610 -688 0
-610 -697 0
-619 -679 0
-619 -688 0
-619 -697 0
-679 -688 0
-679 -697 0
-688 -697 0
524 533 542 602 611 620 680 689 23 0
-524 -533 0
-524 -542 0
-524 -602 0
-524 -611 0
-524 -620 0
-524 -680 0
-524 -689 0
-524 -23 0
-533 -542 0
-533 -602 0
-533 -611 0
-533 -620 0
-533 -680 0
-533 -689 0
-533 -23 0
-542 -602 0
-542 -611 0
-542 -620 0
-542 -680 0
-542 -689 0
-542 -23 0
-602 -611 0
-602 -620 0
-602 -680 0
-602 -689 0
-602 -23 0
-611 -620 0
-611 -680 0
-611 -689 0
-611 -23 0
-620 -680 0
-620 -689 0
-620 -23 0
-680 -689 0
-680 -23 0
-689 -23 0
525 534 543 603 612 621 681 690 698 0
-525 -534 0
-525 -543 0
-525 -603 0
-525 -612 0
-525 -621 0
-525 -681 0
-525 -690 0
-525 -698 0
-534 -543 0
-534 -603 0
-534 -612 0
-534 -621 0
-534 -681 0
-534 -690 0
-534 -698 0
-543 -603 0
-543 -612 0
-543 -621 0
-543 -681 0
-543 -690 0
-543 -698 0
-603 -612 0
-603 -621 0
-603 -681 0
-603 -690 0
-603 -698 0
-612 -621 0
-612 -681 0
-612 -690 0
-612 -698 0
-621 -681 0
-621 -690 0
-621 -698 0
-681 -690 0
-681 -698 0
-690 -698 0
526 535 544 604 613 622 682 691 699 0
-526 -535 0
-526 -544 0
-526 -604 0
-526 -613 0
-526 -622 0
-526 -682 0
-526 -691 0
-526 -699 0
-535 -544 0
-535 -604 0
-535 -613 0
-535 -622 0
-535 -682 0
-535 -691 0
-535 -699 0
-544 -604 0
-544 -613 0
-544 -622 0
-544 -682 0
-544 -691 0
-544 -699 0
-604 -613 0
-604 -622 0
-604 -682 0
-604 -691 0
-604 -699 0
-613 -622 0
-613 -682 0
-613 -691 0
-613 -699 0
-622 -682 0
-622 -691 0
-622 -699 0
-682 -691 0
-682 -699 0
-691 -699 0
527 536 545 605 614 623 683 692 700 0
-527 -536 0
-527 -545 0
-527 -605 0
-527 -614 0
-527 -623 0
-527 -683 0
-527 -692 0
-527 -700 0
-536 -545 0
-536 -605 0
-536 -614 0
-536 -623 0
-536 -683 0
-536 -692 0
-536 -700 0
-545 -605 0
-545 -614 0
-545 -623 0
-545 -683 0
-545 -692 0
-545 -700 0
-605 -614 0
-605 -623 0
-605 -683 0
-605 -692 0
-605 -700 0
-614 -623 0
-614 -683 0
-614 -692 0
-614 -700 0
-623 -683 0
-623 -692 0
-623 -700 0
-683 -692 0
-683 -700 0
-692 -700 0
528 537 546 606 615 624 684 693 701 0
-528 -537 0
-528 -546 0
-528 -606 0
-528 -615 0
-528 -624 0
-528 -684 0
-528 -693 0
-528 -701 0
-537 -546 0
-537 -606 0
-537 -615 0
-537 -624 0
-537 -684 0
-537 -693 0
-537 -701 0
-546 -606 0
-546 -615 0
-546 -624 0
-546 -684 0
-546 -693 0
-546 -701 0
-606 -615 0
-606 -624 0
-606 -684 0
-606 -693 0
-606 -701 0
-615 -624 0
-615 -684 0
-615 -693 0
-615 -701 0
-624 -684 0
-624 -693 0
-624 -701 0
-684 -693 0
-684 -701 0
-693 -701 0
529 538 547 607 616 625 685 694 702 0
-529 -538 0
-529 -547 0
-529 -607 0
-529 -616 0
-529 -625 0
-529 -685 0
-529 -694 0
-529 -702 0
-538 -547 0
-538 -607 0
-538 -616 0
-538 -625 0
-538 -685 0
-538 -694 0
-538 -702 0
-547 -607 0
-547 -616 0
-547 -625 0
-547 -685 0
-547 -694 0
-547 -702 0
-607 -616 0
-607 -625 0
-607 -685 0
-607 -694 0
-607 -702 0
-616 -625 0
-616 -685 0
-616 -694 0
-616 -702 0
-625 -685 0
-625 -694 0
-625 -702 0
-685 -694 0
-685 -702 0
-694 -702 0
548 557 566 20 634 642 703 712 721 0
-548 -557 0
-548 -566 0
-548 -20 0
-548 -634 0
-548 -642 0
-548 -703 0
-548 -712 0
-548 -721 0
-557 -566 0
-557 -20 0
-557 -634 0
-557 -642 0
-557 -703 0
-557 -712 0
-557 -721 0
-566 -20 0
-566 -634 0
-566 -642 0
-566 -703 0
-566 -712 0
-566 -721 0
-20 -634 0
-20 -642 0
-20 -703 0
-20 -712 0
-20 -721 0
-634 -642 0
-634 -703 0
-634 -712 0
-634 -721 0
-642 -703 0
-642 -712 0
-642 -721 0
-703 -712 0
-703 -721 0
-712 -721 0
549 558 567 626 635 643 704 713 722 0
-549 -558 0
-549 -567 0
-549 -626 0
-549 -635 0
-549 -643 0
-549 -704 0
-549 -713 0
-549 -722 0
-558 -567 0
-558 -626 0
-558 -635 0
-558 -643 0
-558 -704 0
-558 -713 0
-558 -722 0
-567 -626 0
-567 -635 0
-567 -643 0
-567 -704 0
-567 -713 0
-567 -722 0
-626 -635 0
-626 -643 0
-626 -704 0
-626 -713 0
-626 -722 0
-635 -643 0
-635 -704 0
-635 -713 0
-635 -722 0
-643 -704 0
-643 -713 0
-643 -722 0
-704 -713 0
-704 -722 0
-713 -722 0
550 559 568 627 21 644 705 714 723 0
-550 -559 0
-550 -568 0
-550 -627 0
-550 -21 0
-550 -644 0
-550 -705 0
-550 -714 0
-550 -723 0
-559 -568 0
-559 -627 0
-559 -21 0
-559 -644 0
-559 -705 0
-559 -714 0
-559 -723 0
-568 -627 0
-568 -21 0
-568 -644 0
-568 -705 0
-568 -714 0
-568 -723 0
-627 -21 0
-627 -644 0
-627 -705 0
-627 -714 0
-627 -723 0
-21 -644 0
-21 -705 0
-21 -714 0
-21 -723 0
-644 -705 0
-644 -714 0
-644 -723 0
-705 -714 0
-705 -723 0
-714 -723 0
551 560 569 628 636 645 706 715 724 0
-551 -560 0
-551 -569 0
-551 -628 0
-551 -636 0
-551 -645 0
-551 -706 0
-551 -715 0
-551 -724 0
-560 -569 0
-560 -628 0
-560 -636 0
-560 -645 0
-560 -706 0
-560 -715 0
-560 -724 0
-569 -628 0
-569 -636 0
-569 -645 0
-569 -706 0
-569 -715 0
-569 -724 0
-628 -636 0
-628 -645 0
-628 -706 0
-628 -715 0
-628 -724 0
-636 -645 0
-636 -706 0
-636 -715 0
-636 -724 0
-645 -706 0
-645 -715 0
-645 -724 0
-706 -715 0
-706 -724 0
-715 -724 0
552 561 17 629 637 646 707 716 725 0
-552 -561 0
-552 -17 0
-552 -629 0
-552 -637 0
-552 -646 0
-552 -707 0
-552 -716 0
-552 -725 0
-561 -17 0
-561 -629 0
-561 -637 0
-561 -646 0
-561 -707 0
-561 -716 0
-561 -725 0
-17 -629 0
-17 -637 0
-17 -646 0
-17 -707 0
-17 -716 0
-17 -725 0
-629 -637 0
-629 -646 0
-629 -707 0
-629 -716 0
-629 -725 0
-637 -646 0
-637 -707 0
-637 -716 0
-637 -725 0
-646 -707 0
-646 -716 0
-646 -725 0
-707 -716 0
-707 -725 0
-716 -725 0
553 562 570 630 638 647 708 717 726 0
-553 -562 0
-553 -570 0
-553 -630 0
-553 -638 0
-553 -647 0
-553 -708 0
-553 -717 0
-553 -726 0
-562 -570 0
-562 -630 0
-562 -638 0
-562 -647 0
-562 -708 0
-562 -717 0
-562 -726 0
-570 -630 0
-570 -638 0
-570 -647 0
-570 -708 0
-570 -717 0
-570 -726 0
-630 -638 0
-630 -647 0
-630 -708 0
-630 -717 0
-630 -726 0
-638 -647 0
-638 -708 0
-638 -717 0
-638 -726 0
-647 -708 0
-647 -717 0
-647 -726 0
-708 -717 0
-708 -726 0
-717 -726 0
554 563 571 631 639 648 709 718 727 0
-554 -563 0
-554 -571 0
-554 -631 0
-554 -639 0
-554 -648 0
-554 -709 0
-554 -718 0
-554 -727 0
-563 -571 0
-563 -631 0
-563 -639 0
-563 -648 0
-563 -709 0
-563 -718 0
-563 -727 0
-571 -631 0
-571 -639 0
-571 -648 0
-571 -709 0
-571 -718 0
-571 -727 0
-631 -639 0
-631 -648 0
-631 -709 0
-631 -718 0
-631 -727 0
-639 -648 0
-639 -709 0
-639 -718 0
-639 -727 0
-648 -709 0
-648 -718 0
-648 -727 0
-709 -718 0
-709 -727 0
-718 -727 0
555 564 572 632 640 649 710 719 728 0
-555 -564 0
-555 -572 0
-555 -632 0
-555 -640 0
-555 -649 0
-555 -710 0
-555 -719 0
-555 -728 0
-564 -572 0
-564 -632 0
-564 -640 0
-564 -649 0
-564 -710 0
-564 -719 0
-564 -728 0
-572 -632 0
-572 -640 0
-572 -649 0
-572 -710 0
-572 -719 0
-572 -728 0
-632 -640 0
-632 -649 0
-632 -710 0
-632 -719 0
-632 -728 0
-640 -649 0
-640 -710 0
-640 -719 0
-640 -728 0
-649 -710 0
-649 -719 0
-649 -728 0
-710 -719 0
-710 -728 0
-719 -728 0
556 565 573 633 641 650 711 720 729 0
-556 -565 0
-556 -573 0
-556 -633 0
-556 -641 0
-556 -650 0
-556 -711 0
-556 -720 0
-556 -729 0
-565 -573 0
-565 -633 0
-565 -641 0
-565 -650 0
-565 -711 0
-565 -720 0
-565 -729 0
-573 -633 0
-573 -641 0
-573 -650 0
-573 -711 0
-573 -720 0
-573 -729 0
-633 -641 0
-633 -650 0
-633 -711 0
-633 -720 0
-633 -729 0
-641 -650 0
-641 -711 0
-641 -720 0
-641 -729 0
-650 -711 0
-650 -720 0
-650 -729 0
-711 -720 0
-711 -729 0
-720 -729 0
