p cnf 89 878
1 0
2 3 0
-2 -3 0
4 5 6 0
-4 -5 0
-4 -6 0
-5 -6 0
7 8 0
-7 -8 0
9 0
10 11 12 0
-10 -11 0
-10 -12 0
-11 -12 0
13 14 15 0
-13 -14 0
-13 -15 0
-14 -15 0
16 17 18 0
-16 -17 0
-16 -18 0
-17 -18 0
19 20 21 0
-19 -20 0
-19 -21 0
-20 -21 0
22 23 24 0
-22 -23 0
-22 -24 0
-23 -24 0
25 26 27 0
-25 -26 0
-25 -27 0
-26 -27 0
28 29 0
-28 -29 0
30 31 32 0
-30 -31 0
-30 -32 0
-31 -32 0
33 34 0
-33 -34 0
35 36 0
-35 -36 0
37 38 39 0
-37 -38 0
-37 -39 0
-38 -39 0
40 41 42 0
-40 -41 0
-40 -42 0
-41 -42 0
43 44 0
-43 -44 0
45 46 47 0
-45 -46 0
-45 -47 0
-46 -47 0
48 49 0
-48 -49 0
50 51 52 0
-50 -51 0
-50 -52 0
-51 -52 0
53 54 55 0
-53 -54 0
-53 -55 0
-54 -55 0
56 57 0
-56 -57 0
58 59 0
-58 -59 0
60 61 0
-60 -61 0
62 63 64 0
-62 -63 0
-62 -64 0
-63 -64 0
65 66 67 0
-65 -66 0
-65 -67 0
-66 -67 0
68 69 0
-68 -69 0
70 71 0
-70 -71 0
72 73 0
-72 -73 0
-4 -13 -19 -25 -30 0
-4 -13 -19 -25 -40 0
-4 -13 -19 -25 -45 0
-4 -13 -19 -25 -50 0
-4 -13 -19 -25 -60 0
-4 -13 -19 -25 -65 0
-4 -13 -19 -30 -40 0
-4 -13 -19 -30 -45 0
-4 -13 -19 -30 -50 0
-4 -13 -19 -30 -60 0
-4 -13 -19 -30 -65 0
-4 -13 -19 -40 -45 0
-4 -13 -19 -40 -50 0
-4 -13 -19 -40 -60 0
-4 -13 -19 -40 -65 0
-4 -13 -19 -45 -50 0
-4 -13 -19 -45 -60 0
-4 -13 -19 -45 -65 0
-4 -13 -19 -50 -60 0
-4 -13 -19 -50 -65 0
-4 -13 -19 -60 -65 0
-4 -13 -25 -30 -40 0
-4 -13 -25 -30 -45 0
-4 -13 -25 -30 -50 0
-4 -13 -25 -30 -60 0
-4 -13 -25 -30 -65 0
-4 -13 -25 -40 -45 0
-4 -13 -25 -40 -50 0
-4 -13 -25 -40 -60 0
-4 -13 -25 -40 -65 0
-4 -13 -25 -45 -50 0
-4 -13 -25 -45 -60 0
-4 -13 -25 -45 -65 0
-4 -13 -25 -50 -60 0
-4 -13 -25 -50 -65 0
-4 -13 -25 -60 -65 0
-4 -13 -30 -40 -45 0
-4 -13 -30 -40 -50 0
-4 -13 -30 -40 -60 0
-4 -13 -30 -40 -65 0
-4 -13 -30 -45 -50 0
-4 -13 -30 -45 -60 0
-4 -13 -30 -45 -65 0
-4 -13 -30 -50 -60 0
-4 -13 -30 -50 -65 0
-4 -13 -30 -60 -65 0
-4 -13 -40 -45 -50 0
-4 -13 -40 -45 -60 0
-4 -13 -40 -45 -65 0
-4 -13 -40 -50 -60 0
-4 -13 -40 -50 -65 0
-4 -13 -40 -60 -65 0
-4 -13 -45 -50 -60 0
-4 -13 -45 -50 -65 0
-4 -13 -45 -60 -65 0
-4 -13 -50 -60 -65 0
-4 -19 -25 -30 -40 0
-4 -19 -25 -30 -45 0
-4 -19 -25 -30 -50 0
-4 -19 -25 -30 -60 0
-4 -19 -25 -30 -65 0
-4 -19 -25 -40 -45 0
-4 -19 -25 -40 -50 0
-4 -19 -25 -40 -60 0
-4 -19 -25 -40 -65 0
-4 -19 -25 -45 -50 0
-4 -19 -25 -45 -60 0
-4 -19 -25 -45 -65 0
-4 -19 -25 -50 -60 0
-4 -19 -25 -50 -65 0
-4 -19 -25 -60 -65 0
-4 -19 -30 -40 -45 0
-4 -19 -30 -40 -50 0
-4 -19 -30 -40 -60 0
-4 -19 -30 -40 -65 0
-4 -19 -30 -45 -50 0
-4 -19 -30 -45 -60 0
-4 -19 -30 -45 -65 0
-4 -19 -30 -50 -60 0
-4 -19 -30 -50 -65 0
-4 -19 -30 -60 -65 0
-4 -19 -40 -45 -50 0
-4 -19 -40 -45 -60 0
-4 -19 -40 -45 -65 0
-4 -19 -40 -50 -60 0
-4 -19 -40 -50 -65 0
-4 -19 -40 -60 -65 0
-4 -19 -45 -50 -60 0
-4 -19 -45 -50 -65 0
-4 -19 -45 -60 -65 0
-4 -19 -50 -60 -65 0
-4 -25 -30 -40 -45 0
-4 -25 -30 -40 -50 0
-4 -25 -30 -40 -60 0
-4 -25 -30 -40 -65 0
-4 -25 -30 -45 -50 0
-4 -25 -30 -45 -60 0
-4 -25 -30 -45 -65 0
-4 -25 -30 -50 -60 0
-4 -25 -30 -50 -65 0
-4 -25 -30 -60 -65 0
-4 -25 -40 -45 -50 0
-4 -25 -40 -45 -60 0
-4 -25 -40 -45 -65 0
-4 -25 -40 -50 -60 0
-4 -25 -40 -50 -65 0
-4 -25 -40 -60 -65 0
-4 -25 -45 -50 -60 0
-4 -25 -45 -50 -65 0
-4 -25 -45 -60 -65 0
-4 -25 -50 -60 -65 0
-4 -30 -40 -45 -50 0
-4 -30 -40 -45 -60 0
-4 -30 -40 -45 -65 0
-4 -30 -40 -50 -60 0
-4 -30 -40 -50 -65 0
-4 -30 -40 -60 -65 0
-4 -30 -45 -50 -60 0
-4 -30 -45 -50 -65 0
-4 -30 -45 -60 -65 0
-4 -30 -50 -60 -65 0
-4 -40 -45 -50 -60 0
-4 -40 -45 -50 -65 0
-4 -40 -45 -60 -65 0
-4 -40 -50 -60 -65 0
-4 -45 -50 -60 -65 0
-13 -19 -25 -30 -40 0
-13 -19 -25 -30 -45 0
-13 -19 -25 -30 -50 0
-13 -19 -25 -30 -60 0
-13 -19 -25 -30 -65 0
-13 -19 -25 -40 -45 0
-13 -19 -25 -40 -50 0
-13 -19 -25 -40 -60 0
-13 -19 -25 -40 -65 0
-13 -19 -25 -45 -50 0
-13 -19 -25 -45 -60 0
-13 -19 -25 -45 -65 0
-13 -19 -25 -50 -60 0
-13 -19 -25 -50 -65 0
-13 -19 -25 -60 -65 0
-13 -19 -30 -40 -45 0
-13 -19 -30 -40 -50 0
-13 -19 -30 -40 -60 0
-13 -19 -30 -40 -65 0
-13 -19 -30 -45 -50 0
-13 -19 -30 -45 -60 0
-13 -19 -30 -45 -65 0
-13 -19 -30 -50 -60 0
-13 -19 -30 -50 -65 0
-13 -19 -30 -60 -65 0
-13 -19 -40 -45 -50 0
-13 -19 -40 -45 -60 0
-13 -19 -40 -45 -65 0
-13 -19 -40 -50 -60 0
-13 -19 -40 -50 -65 0
-13 -19 -40 -60 -65 0
-13 -19 -45 -50 -60 0
-13 -19 -45 -50 -65 0
-13 -19 -45 -60 -65 0
-13 -19 -50 -60 -65 0
-13 -25 -30 -40 -45 0
-13 -25 -30 -40 -50 0
-13 -25 -30 -40 -60 0
-13 -25 -30 -40 -65 0
-13 -25 -30 -45 -50 0
-13 -25 -30 -45 -60 0
-13 -25 -30 -45 -65 0
-13 -25 -30 -50 -60 0
-13 -25 -30 -50 -65 0
-13 -25 -30 -60 -65 0
-13 -25 -40 -45 -50 0
-13 -25 -40 -45 -60 0
-13 -25 -40 -45 -65 0
-13 -25 -40 -50 -60 0
-13 -25 -40 -50 -65 0
-13 -25 -40 -60 -65 0
-13 -25 -45 -50 -60 0
-13 -25 -45 -50 -65 0
-13 -25 -45 -60 -65 0
-13 -25 -50 -60 -65 0
-13 -30 -40 -45 -50 0
-13 -30 -40 -45 -60 0
-13 -30 -40 -45 -65 0
-13 -30 -40 -50 -60 0
-13 -30 -40 -50 -65 0
-13 -30 -40 -60 -65 0
-13 -30 -45 -50 -60 0
-13 -30 -45 -50 -65 0
-13 -30 -45 -60 -65 0
-13 -30 -50 -60 -65 0
-13 -40 -45 -50 -60 0
-13 -40 -45 -50 -65 0
-13 -40 -45 -60 -65 0
-13 -40 -50 -60 -65 0
-13 -45 -50 -60 -65 0
-19 -25 -30 -40 -45 0
-19 -25 -30 -40 -50 0
-19 -25 -30 -40 -60 0
-19 -25 -30 -40 -65 0
-19 -25 -30 -45 -50 0
-19 -25 -30 -45 -60 0
-19 -25 -30 -45 -65 0
-19 -25 -30 -50 -60 0
-19 -25 -30 -50 -65 0
-19 -25 -30 -60 -65 0
-19 -25 -40 -45 -50 0
-19 -25 -40 -45 -60 0
-19 -25 -40 -45 -65 0
-19 -25 -40 -50 -60 0
-19 -25 -40 -50 -65 0
-19 -25 -40 -60 -65 0
-19 -25 -45 -50 -60 0
-19 -25 -45 -50 -65 0
-19 -25 -45 -60 -65 0
-19 -25 -50 -60 -65 0
-19 -30 -40 -45 -50 0
-19 -30 -40 -45 -60 0
-19 -30 -40 -45 -65 0
-19 -30 -40 -50 -60 0
-19 -30 -40 -50 -65 0
-19 -30 -40 -60 -65 0
-19 -30 -45 -50 -60 0
-19 -30 -45 -50 -65 0
-19 -30 -45 -60 -65 0
-19 -30 -50 -60 -65 0
-19 -40 -45 -50 -60 0
-19 -40 -45 -50 -65 0
-19 -40 -45 -60 -65 0
-19 -40 -50 -60 -65 0
-19 -45 -50 -60 -65 0
-25 -30 -40 -45 -50 0
-25 -30 -40 -45 -60 0
-25 -30 -40 -45 -65 0
-25 -30 -40 -50 -60 0
-25 -30 -40 -50 -65 0
-25 -30 -40 -60 -65 0
-25 -30 -45 -50 -60 0
-25 -30 -45 -50 -65 0
-25 -30 -45 -60 -65 0
-25 -30 -50 -60 -65 0
-25 -40 -45 -50 -60 0
-25 -40 -45 -50 -65 0
-25 -40 -45 -60 -65 0
-25 -40 -50 -60 -65 0
-25 -45 -50 -60 -65 0
-30 -40 -45 -50 -60 0
-30 -40 -45 -50 -65 0
-30 -40 -45 -60 -65 0
-30 -40 -50 -60 -65 0
-30 -45 -50 -60 -65 0
-40 -45 -50 -60 -65 0
-1 -5 -14 -26 -31 0
-1 -5 -14 -26 -41 0
-1 -5 -14 -26 -46 0
-1 -5 -14 -26 -51 0
-1 -5 -14 -26 -61 0
-1 -5 -14 -26 -70 0
-1 -5 -14 -31 -41 0
-1 -5 -14 -31 -46 0
-1 -5 -14 -31 -51 0
-1 -5 -14 -31 -61 0
-1 -5 -14 -31 -70 0
-1 -5 -14 -41 -46 0
-1 -5 -14 -41 -51 0
-1 -5 -14 -41 -61 0
-1 -5 -14 -41 -70 0
-1 -5 -14 -46 -51 0
-1 -5 -14 -46 -61 0
-1 -5 -14 -46 -70 0
-1 -5 -14 -51 -61 0
-1 -5 -14 -51 -70 0
-1 -5 -14 -61 -70 0
-1 -5 -26 -31 -41 0
-1 -5 -26 -31 -46 0
-1 -5 -26 -31 -51 0
-1 -5 -26 -31 -61 0
-1 -5 -26 -31 -70 0
-1 -5 -26 -41 -46 0
-1 -5 -26 -41 -51 0
-1 -5 -26 -41 -61 0
-1 -5 -26 -41 -70 0
-1 -5 -26 -46 -51 0
-1 -5 -26 -46 -61 0
-1 -5 -26 -46 -70 0
-1 -5 -26 -51 -61 0
-1 -5 -26 -51 -70 0
-1 -5 -26 -61 -70 0
-1 -5 -31 -41 -46 0
-1 -5 -31 -41 -51 0
-1 -5 -31 -41 -61 0
-1 -5 -31 -41 -70 0
-1 -5 -31 -46 -51 0
-1 -5 -31 -46 -61 0
-1 -5 -31 -46 -70 0
-1 -5 -31 -51 -61 0
-1 -5 -31 -51 -70 0
-1 -5 -31 -61 -70 0
-1 -5 -41 -46 -51 0
-1 -5 -41 -46 -61 0
-1 -5 -41 -46 -70 0
-1 -5 -41 -51 -61 0
-1 -5 -41 -51 -70 0
-1 -5 -41 -61 -70 0
-1 -5 -46 -51 -61 0
-1 -5 -46 -51 -70 0
-1 -5 -46 -61 -70 0
-1 -5 -51 -61 -70 0
-1 -14 -26 -31 -41 0
-1 -14 -26 -31 -46 0
-1 -14 -26 -31 -51 0
-1 -14 -26 -31 -61 0
-1 -14 -26 -31 -70 0
-1 -14 -26 -41 -46 0
-1 -14 -26 -41 -51 0
-1 -14 -26 -41 -61 0
-1 -14 -26 -41 -70 0
-1 -14 -26 -46 -51 0
-1 -14 -26 -46 -61 0
-1 -14 -26 -46 -70 0
-1 -14 -26 -51 -61 0
-1 -14 -26 -51 -70 0
-1 -14 -26 -61 -70 0
-1 -14 -31 -41 -46 0
-1 -14 -31 -41 -51 0
-1 -14 -31 -41 -61 0
-1 -14 -31 -41 -70 0
-1 -14 -31 -46 -51 0
-1 -14 -31 -46 -61 0
-1 -14 -31 -46 -70 0
-1 -14 -31 -51 -61 0
-1 -14 -31 -51 -70 0
-1 -14 -31 -61 -70 0
-1 -14 -41 -46 -51 0
-1 -14 -41 -46 -61 0
-1 -14 -41 -46 -70 0
-1 -14 -41 -51 -61 0
-1 -14 -41 -51 -70 0
-1 -14 -41 -61 -70 0
-1 -14 -46 -51 -61 0
-1 -14 -46 -51 -70 0
-1 -14 -46 -61 -70 0
-1 -14 -51 -61 -70 0
-1 -26 -31 -41 -46 0
-1 -26 -31 -41 -51 0
-1 -26 -31 -41 -61 0
-1 -26 -31 -41 -70 0
-1 -26 -31 -46 -51 0
-1 -26 -31 -46 -61 0
-1 -26 -31 -46 -70 0
-1 -26 -31 -51 -61 0
-1 -26 -31 -51 -70 0
-1 -26 -31 -61 -70 0
-1 -26 -41 -46 -51 0
-1 -26 -41 -46 -61 0
-1 -26 -41 -46 -70 0
-1 -26 -41 -51 -61 0
-1 -26 -41 -51 -70 0
-1 -26 -41 -61 -70 0
-1 -26 -46 -51 -61 0
-1 -26 -46 -51 -70 0
-1 -26 -46 -61 -70 0
-1 -26 -51 -61 -70 0
-1 -31 -41 -46 -51 0
-1 -31 -41 -46 -61 0
-1 -31 -41 -46 -70 0
-1 -31 -41 -51 -61 0
-1 -31 -41 -51 -70 0
-1 -31 -41 -61 -70 0
-1 -31 -46 -51 -61 0
-1 -31 -46 -51 -70 0
-1 -31 -46 -61 -70 0
-1 -31 -51 -61 -70 0
-1 -41 -46 -51 -61 0
-1 -41 -46 -51 -70 0
-1 -41 -46 -61 -70 0
-1 -41 -51 -61 -70 0
-1 -46 -51 -61 -70 0
-5 -14 -26 -31 -41 0
-5 -14 -26 -31 -46 0
-5 -14 -26 -31 -51 0
-5 -14 -26 -31 -61 0
-5 -14 -26 -31 -70 0
-5 -14 -26 -41 -46 0
-5 -14 -26 -41 -51 0
-5 -14 -26 -41 -61 0
-5 -14 -26 -41 -70 0
-5 -14 -26 -46 -51 0
-5 -14 -26 -46 -61 0
-5 -14 -26 -46 -70 0
-5 -14 -26 -51 -61 0
-5 -14 -26 -51 -70 0
-5 -14 -26 -61 -70 0
-5 -14 -31 -41 -46 0
-5 -14 -31 -41 -51 0
-5 -14 -31 -41 -61 0
-5 -14 -31 -41 -70 0
-5 -14 -31 -46 -51 0
-5 -14 -31 -46 -61 0
-5 -14 -31 -46 -70 0
-5 -14 -31 -51 -61 0
-5 -14 -31 -51 -70 0
-5 -14 -31 -61 -70 0
-5 -14 -41 -46 -51 0
-5 -14 -41 -46 -61 0
-5 -14 -41 -46 -70 0
-5 -14 -41 -51 -61 0
-5 -14 -41 -51 -70 0
-5 -14 -41 -61 -70 0
-5 -14 -46 -51 -61 0
-5 -14 -46 -51 -70 0
-5 -14 -46 -61 -70 0
-5 -14 -51 -61 -70 0
-5 -26 -31 -41 -46 0
-5 -26 -31 -41 -51 0
-5 -26 -31 -41 -61 0
-5 -26 -31 -41 -70 0
-5 -26 -31 -46 -51 0
-5 -26 -31 -46 -61 0
-5 -26 -31 -46 -70 0
-5 -26 -31 -51 -61 0
-5 -26 -31 -51 -70 0
-5 -26 -31 -61 -70 0
-5 -26 -41 -46 -51 0
-5 -26 -41 -46 -61 0
-5 -26 -41 -46 -70 0
-5 -26 -41 -51 -61 0
-5 -26 -41 -51 -70 0
-5 -26 -41 -61 -70 0
-5 -26 -46 -51 -61 0
-5 -26 -46 -51 -70 0
-5 -26 -46 -61 -70 0
-5 -26 -51 -61 -70 0
-5 -31 -41 -46 -51 0
-5 -31 -41 -46 -61 0
-5 -31 -41 -46 -70 0
-5 -31 -41 -51 -61 0
-5 -31 -41 -51 -70 0
-5 -31 -41 -61 -70 0
-5 -31 -46 -51 -61 0
-5 -31 -46 -51 -70 0
-5 -31 -46 -61 -70 0
-5 -31 -51 -61 -70 0
-5 -41 -46 -51 -61 0
-5 -41 -46 -51 -70 0
-5 -41 -46 -61 -70 0
-5 -41 -51 -61 -70 0
-5 -46 -51 -61 -70 0
-14 -26 -31 -41 -46 0
-14 -26 -31 -41 -51 0
-14 -26 -31 -41 -61 0
-14 -26 -31 -41 -70 0
-14 -26 -31 -46 -51 0
-14 -26 -31 -46 -61 0
-14 -26 -31 -46 -70 0
-14 -26 -31 -51 -61 0
-14 -26 -31 -51 -70 0
-14 -26 -31 -61 -70 0
-14 -26 -41 -46 -51 0
-14 -26 -41 -46 -61 0
-14 -26 -41 -46 -70 0
-14 -26 -41 -51 -61 0
-14 -26 -41 -51 -70 0
-14 -26 -41 -61 -70 0
-14 -26 -46 -51 -61 0
-14 -26 -46 -51 -70 0
-14 -26 -46 -61 -70 0
-14 -26 -51 -61 -70 0
-14 -31 -41 -46 -51 0
-14 -31 -41 -46 -61 0
-14 -31 -41 -46 -70 0
-14 -31 -41 -51 -61 0
-14 -31 -41 -51 -70 0
-14 -31 -41 -61 -70 0
-14 -31 -46 -51 -61 0
-14 -31 -46 -51 -70 0
-14 -31 -46 -61 -70 0
-14 -31 -51 -61 -70 0
-14 -41 -46 -51 -61 0
-14 -41 -46 -51 -70 0
-14 -41 -46 -61 -70 0
-14 -41 -51 -61 -70 0
-14 -46 -51 -61 -70 0
-26 -31 -41 -46 -51 0
-26 -31 -41 -46 -61 0
-26 -31 -41 -46 -70 0
-26 -31 -41 -51 -61 0
-26 -31 -41 -51 -70 0
-26 -31 -41 -61 -70 0
-26 -31 -46 -51 -61 0
-26 -31 -46 -51 -70 0
-26 -31 -46 -61 -70 0
-26 -31 -51 -61 -70 0
-26 -41 -46 -51 -61 0
-26 -41 -46 -51 -70 0
-26 -41 -46 -61 -70 0
-26 -41 -51 -61 -70 0
-26 -46 -51 -61 -70 0
-31 -41 -46 -51 -61 0
-31 -41 -46 -51 -70 0
-31 -41 -46 -61 -70 0
-31 -41 -51 -61 -70 0
-31 -46 -51 -61 -70 0
-41 -46 -51 -61 -70 0
-9 -20 -27 -35 -42 0
-9 -20 -27 -35 -52 0
-9 -20 -27 -35 -56 0
-9 -20 -27 -35 -66 0
-9 -20 -27 -35 -71 0
-9 -20 -27 -42 -52 0
-9 -20 -27 -42 -56 0
-9 -20 -27 -42 -66 0
-9 -20 -27 -42 -71 0
-9 -20 -27 -52 -56 0
-9 -20 -27 -52 -66 0
-9 -20 -27 -52 -71 0
-9 -20 -27 -56 -66 0
-9 -20 -27 -56 -71 0
-9 -20 -27 -66 -71 0
-9 -20 -35 -42 -52 0
-9 -20 -35 -42 -56 0
-9 -20 -35 -42 -66 0
-9 -20 -35 -42 -71 0
-9 -20 -35 -52 -56 0
-9 -20 -35 -52 -66 0
-9 -20 -35 -52 -71 0
-9 -20 -35 -56 -66 0
-9 -20 -35 -56 -71 0
-9 -20 -35 -66 -71 0
-9 -20 -42 -52 -56 0
-9 -20 -42 -52 -66 0
-9 -20 -42 -52 -71 0
-9 -20 -42 -56 -66 0
-9 -20 -42 -56 -71 0
-9 -20 -42 -66 -71 0
-9 -20 -52 -56 -66 0
-9 -20 -52 -56 -71 0
-9 -20 -52 -66 -71 0
-9 -20 -56 -66 -71 0
-9 -27 -35 -42 -52 0
-9 -27 -35 -42 -56 0
-9 -27 -35 -42 -66 0
-9 -27 -35 -42 -71 0
-9 -27 -35 -52 -56 0
-9 -27 -35 -52 -66 0
-9 -27 -35 -52 -71 0
-9 -27 -35 -56 -66 0
-9 -27 -35 -56 -71 0
-9 -27 -35 -66 -71 0
-9 -27 -42 -52 -56 0
-9 -27 -42 -52 -66 0
-9 -27 -42 -52 -71 0
-9 -27 -42 -56 -66 0
-9 -27 -42 -56 -71 0
-9 -27 -42 -66 -71 0
-9 -27 -52 -56 -66 0
-9 -27 -52 -56 -71 0
-9 -27 -52 -66 -71 0
-9 -27 -56 -66 -71 0
-9 -35 -42 -52 -56 0
-9 -35 -42 -52 -66 0
-9 -35 -42 -52 -71 0
-9 -35 -42 -56 -66 0
-9 -35 -42 -56 -71 0
-9 -35 -42 -66 -71 0
-9 -35 -52 -56 -66 0
-9 -35 -52 -56 -71 0
-9 -35 -52 -66 -71 0
-9 -35 -56 -66 -71 0
-9 -42 -52 -56 -66 0
-9 -42 -52 -56 -71 0
-9 -42 -52 -66 -71 0
-9 -42 -56 -66 -71 0
-9 -52 -56 -66 -71 0
-20 -27 -35 -42 -52 0
-20 -27 -35 -42 -56 0
-20 -27 -35 -42 -66 0
-20 -27 -35 -42 -71 0
-20 -27 -35 -52 -56 0
-20 -27 -35 -52 -66 0
-20 -27 -35 -52 -71 0
-20 -27 -35 -56 -66 0
-20 -27 -35 -56 -71 0
-20 -27 -35 -66 -71 0
-20 -27 -42 -52 -56 0
-20 -27 -42 -52 -66 0
-20 -27 -42 -52 -71 0
-20 -27 -42 -56 -66 0
-20 -27 -42 -56 -71 0
-20 -27 -42 -66 -71 0
-20 -27 -52 -56 -66 0
-20 -27 -52 -56 -71 0
-20 -27 -52 -66 -71 0
-20 -27 -56 -66 -71 0
-20 -35 -42 -52 -56 0
-20 -35 -42 -52 -66 0
-20 -35 -42 -52 -71 0
-20 -35 -42 -56 -66 0
-20 -35 -42 -56 -71 0
-20 -35 -42 -66 -71 0
-20 -35 -52 -56 -66 0
-20 -35 -52 -56 -71 0
-20 -35 -52 -66 -71 0
-20 -35 -56 -66 -71 0
-20 -42 -52 -56 -66 0
-20 -42 -52 -56 -71 0
-20 -42 -52 -66 -71 0
-20 -42 -56 -66 -71 0
-20 -52 -56 -66 -71 0
-27 -35 -42 -52 -56 0
-27 -35 -42 -52 -66 0
-27 -35 -42 -52 -71 0
-27 -35 -42 -56 -66 0
-27 -35 -42 -56 -71 0
-27 -35 -42 -66 -71 0
-27 -35 -52 -56 -66 0
-27 -35 -52 -56 -71 0
-27 -35 -52 -66 -71 0
-27 -35 -56 -66 -71 0
-27 -42 -52 -56 -66 0
-27 -42 -52 -56 -71 0
-27 -42 -52 -66 -71 0
-27 -42 -56 -66 -71 0
-27 -52 -56 -66 -71 0
-35 -42 -52 -56 -66 0
-35 -42 -52 -56 -71 0
-35 -42 -52 -66 -71 0
-35 -42 -56 -66 -71 0
-35 -52 -56 -66 -71 0
-42 -52 -56 -66 -71 0
-6 -15 -21 -32 -36 0
-6 -15 -21 -32 -47 0
-6 -15 -21 -32 -57 0
-6 -15 -21 -32 -67 0
-6 -15 -21 -36 -47 0
-6 -15 -21 -36 -57 0
-6 -15 -21 -36 -67 0
-6 -15 -21 -47 -57 0
-6 -15 -21 -47 -67 0
-6 -15 -21 -57 -67 0
-6 -15 -32 -36 -47 0
-6 -15 -32 -36 -57 0
-6 -15 -32 -36 -67 0
-6 -15 -32 -47 -57 0
-6 -15 -32 -47 -67 0
-6 -15 -32 -57 -67 0
-6 -15 -36 -47 -57 0
-6 -15 -36 -47 -67 0
-6 -15 -36 -57 -67 0
-6 -15 -47 -57 -67 0
-6 -21 -32 -36 -47 0
-6 -21 -32 -36 -57 0
-6 -21 -32 -36 -67 0
-6 -21 -32 -47 -57 0
-6 -21 -32 -47 -67 0
-6 -21 -32 -57 -67 0
-6 -21 -36 -47 -57 0
-6 -21 -36 -47 -67 0
-6 -21 -36 -57 -67 0
-6 -21 -47 -57 -67 0
-6 -32 -36 -47 -57 0
-6 -32 -36 -47 -67 0
-6 -32 -36 -57 -67 0
-6 -32 -47 -57 -67 0
-6 -36 -47 -57 -67 0
-15 -21 -32 -36 -47 0
-15 -21 -32 -36 -57 0
-15 -21 -32 -36 -67 0
-15 -21 -32 -47 -57 0
-15 -21 -32 -47 -67 0
-15 -21 -32 -57 -67 0
-15 -21 -36 -47 -57 0
-15 -21 -36 -47 -67 0
-15 -21 -36 -57 -67 0
-15 -21 -47 -57 -67 0
-15 -32 -36 -47 -57 0
-15 -32 -36 -47 -67 0
-15 -32 -36 -57 -67 0
-15 -32 -47 -57 -67 0
-15 -36 -47 -57 -67 0
-21 -32 -36 -47 -57 0
-21 -32 -36 -47 -67 0
-21 -32 -36 -57 -67 0
-21 -32 -47 -57 -67 0
-21 -36 -47 -57 -67 0
-32 -36 -47 -57 -67 0
-74 -75 -76 0
-74 -75 -77 0
-74 -76 -77 0
-75 -76 -77 0
-78 -79 -80 0
-78 -79 -81 0
-78 -80 -81 0
-79 -80 -81 0
-82 -83 -84 0
-82 -83 -85 0
-82 -84 -85 0
-83 -84 -85 0
-86 -87 -88 0
-86 -87 -89 0
-86 -88 -89 0
-87 -88 -89 0
-1 -2 79 0
-1 -3 87 0
-4 -7 74 0
-4 -8 82 0
-5 -7 75 0
-5 -8 83 0
-6 -7 77 0
-6 -8 85 0
-9 -10 76 0
-9 -11 80 0
-9 -12 88 0
-13 -16 74 0
-13 -17 82 0
-13 -18 86 0
-14 -16 75 0
-14 -17 83 0
-14 -18 87 0
-15 -16 77 0
-15 -17 85 0
-15 -18 89 0
-19 -22 78 0
-19 -23 82 0
-19 -24 86 0
-20 -22 80 0
-20 -23 84 0
-20 -24 88 0
-21 -22 81 0
-21 -23 85 0
-21 -24 89 0
-25 -28 82 0
-25 -29 86 0
-26 -28 83 0
-26 -29 87 0
-27 -28 84 0
-27 -29 88 0
-30 -33 74 0
-30 -34 78 0
-31 -33 75 0
-31 -34 79 0
-32 -33 77 0
-32 -34 81 0
-35 -37 76 0
-35 -38 80 0
-35 -39 88 0
-36 -37 77 0
-36 -38 81 0
-36 -39 89 0
-40 -43 78 0
-40 -44 82 0
-41 -43 79 0
-41 -44 83 0
-42 -43 80 0
-42 -44 84 0
-45 -48 82 0
-45 -49 86 0
-46 -48 83 0
-46 -49 87 0
-47 -48 85 0
-47 -49 89 0
-50 -53 74 0
-50 -54 78 0
-50 -55 86 0
-51 -53 75 0
-51 -54 79 0
-51 -55 87 0
-52 -53 76 0
-52 -54 80 0
-52 -55 88 0
-56 -58 80 0
-56 -59 84 0
-57 -58 81 0
-57 -59 85 0
-60 -62 74 0
-60 -63 82 0
-60 -64 86 0
-61 -62 75 0
-61 -63 83 0
-61 -64 87 0
-65 -68 78 0
-65 -69 82 0
-66 -68 80 0
-66 -69 84 0
-67 -68 81 0
-67 -69 85 0
-70 -72 79 0
-70 -73 87 0
-71 -72 80 0
-71 -73 88 0
